
     Program PWSCF v.7.3.1 starts on  6Oct2026 at  1:19:17 

     This program is part of the open-source Quantum ESPRESSO suite
     for quantum simulation of materials; please cite
         "P. Giannozzi et al., J. Phys.:Condens. Matter 21 395502 (2009);
         "P. Giannozzi et al., J. Phys.:Condens. Matter 29 465901 (2017);
         "P. Giannozzi et al., J. Chem. Phys. 152 154105 (2020);
          URL http://www.quantum-espresso.org", 
     in publications or presentations arising from this work. More details at
     http://www.quantum-espresso.org/quote

     Parallel version (MPI), running on     1 processors

     MPI processes distributed on     1 nodes
     161714 MiB available memory on the printing compute node when the environment starts

     Reading input from ybco_nscf.in

     Current dimensions of program PWSCF are:
     Max number of different atomic species (ntypx) = 10
     Max number of k-points (npk) =  40000
     Max angular momentum in pseudopotentials (lmaxx) =  4
     Message from routine input:
     WARNING: "startingwfc" set to atomic+random may spoil restart
     file Ba.pbe-spn-kjpaw_psl.1.0.0.UPF: wavefunction(s)  5S 6S renormalized
     file Cu.pbe-dn-kjpaw_psl.1.0.0.UPF: wavefunction(s)  4S 3D renormalized
     file Y.pbe-spn-kjpaw_psl.1.0.0.UPF: wavefunction(s)  4S 4P renormalized
     file O.pbe-n-kjpaw_psl.1.0.0.UPF: wavefunction(s)  2S 2P renormalized

     Subspace diagonalization in iterative solution of the eigenvalue problem:
     a serial algorithm will be used


     G-vector sticks info
     --------------------
     sticks:   dense  smooth     PW     G-vecs:    dense   smooth      PW
     Sum        2033    1019    293               210123    74335   11739

     Using Slab Decomposition



     bravais-lattice index     =            0
     lattice parameter (alat)  =       7.2225  a.u.
     unit-cell volume          =    1183.2312 (a.u.)^3
     number of atoms/cell      =           13
     number of atomic types    =            4
     number of electrons       =       106.00
     number of Kohn-Sham states=          100
     kinetic-energy cutoff     =      60.0000  Ry
     charge density cutoff     =     480.0000  Ry
     Exchange-correlation= SLA  PW   PBX  PBC
                           (   1   4   3   4   0   0   0)

     celldm(1)=   7.222533  celldm(2)=   0.000000  celldm(3)=   0.000000
     celldm(4)=   0.000000  celldm(5)=   0.000000  celldm(6)=   0.000000

     crystal axes: (cart. coord. in units of alat)
               a(1) = (   1.000000   0.000000   0.000000 )  
               a(2) = (   0.000000   1.021193   0.000000 )  
               a(3) = (   0.000000   0.000000   3.075341 )  

     reciprocal axes: (cart. coord. in units 2 pi/alat)
               b(1) = (  1.000000  0.000000  0.000000 )  
               b(2) = (  0.000000  0.979247  0.000000 )  
               b(3) = (  0.000000  0.000000  0.325167 )  


     PseudoPot. # 1 for Ba read from file:
     ./pseudo/Ba.pbe-spn-kjpaw_psl.1.0.0.UPF
     MD5 check sum: d0bfcaba5474c8d6848cb65d898579ca
     Pseudo is Projector augmented-wave + core cor, Zval = 10.0
     Generated using &quot;atomic&quot; code by A. Dal Corso  v.6.2.2
     Shape of augmentation charge: PSQ
     Using radial grid of 1251 points,  7 beta functions with: 
                l(1) =   0
                l(2) =   0
                l(3) =   0
                l(4) =   1
                l(5) =   1
                l(6) =   2
                l(7) =   2
     Q(r) pseudized with 0 coefficients 


     PseudoPot. # 2 for Cu read from file:
     ./pseudo/Cu.pbe-dn-kjpaw_psl.1.0.0.UPF
     MD5 check sum: 6d4e9c426eb195b261ab34dd59a66c1c
     Pseudo is Projector augmented-wave + core cor, Zval = 11.0
     Generated using &quot;atomic&quot; code by A. Dal Corso  v.6.3
     Shape of augmentation charge: PSQ
     Using radial grid of 1199 points,  6 beta functions with: 
                l(1) =   0
                l(2) =   0
                l(3) =   1
                l(4) =   1
                l(5) =   2
                l(6) =   2
     Q(r) pseudized with 0 coefficients 


     PseudoPot. # 3 for Y  read from file:
     ./pseudo/Y.pbe-spn-kjpaw_psl.1.0.0.UPF
     MD5 check sum: 4e3c1e872eafb09a660613789eb275a3
     Pseudo is Projector augmented-wave + core cor, Zval = 11.0
     Generated using &quot;atomic&quot; code by A. Dal Corso  v.6.2.2
     Shape of augmentation charge: PSQ
     Using radial grid of 1223 points,  6 beta functions with: 
                l(1) =   0
                l(2) =   0
                l(3) =   1
                l(4) =   1
                l(5) =   2
                l(6) =   2
     Q(r) pseudized with 0 coefficients 


     PseudoPot. # 4 for O  read from file:
     ./pseudo/O.pbe-n-kjpaw_psl.1.0.0.UPF
     MD5 check sum: bad118ecf0cbddbdac989655ac72557d
     Pseudo is Projector augmented-wave + core cor, Zval =  6.0
     Generated using &quot;atomic&quot; code by A. Dal Corso  v.6.3
     Shape of augmentation charge: PSQ
     Using radial grid of 1095 points,  4 beta functions with: 
                l(1) =   0
                l(2) =   0
                l(3) =   1
                l(4) =   1
     Q(r) pseudized with 0 coefficients 


     atomic species   valence    mass     pseudopotential
     Ba               10.00   137.32700     Ba( 1.00)
     Cu               11.00    63.54600     Cu( 1.00)
     Y                11.00    88.90500     Y ( 1.00)
     O                 6.00    15.99900     O ( 1.00)

     No symmetry found


                                    s                        frac. trans.

      isym =  1     identity                                     

 cryst.   s( 1) = (     1          0          0      )
                  (     0          1          0      )
                  (     0          0          1      )

 cart.    s( 1) = (  1.0000000  0.0000000  0.0000000 )
                  (  0.0000000  1.0000000  0.0000000 )
                  (  0.0000000  0.0000000  1.0000000 )


   Cartesian axes

     site n.     atom                  positions (alat units)
         1        Ba     tau(   1) = (   0.5000000   0.5105964   2.5199065  )
         2        Ba     tau(   2) = (   0.5000000   0.5105964   0.5554342  )
         3        Y      tau(   3) = (   0.5000000   0.5105964   1.5376704  )
         4        Cu     tau(   4) = (   0.0000000   0.0000000   1.9887552  )
         5        Cu     tau(   5) = (   0.0000000   0.0000000   1.0865855  )
         6        Cu     tau(   6) = (   0.0000000   0.0000000   0.0000000  )
         7        O      tau(   7) = (   0.0000000   0.5105964   0.0000000  )
         8        O      tau(   8) = (   0.5000000   0.0000000   1.9087194  )
         9        O      tau(   9) = (   0.5000000   0.0000000   1.1666213  )
        10        O      tau(  10) = (   0.0000000   0.5105964   1.9117886  )
        11        O      tau(  11) = (   0.0000000   0.5105964   1.1635521  )
        12        O      tau(  12) = (   0.0000000   0.0000000   2.5858080  )
        13        O      tau(  13) = (   0.0000000   0.0000000   0.4895327  )

   Crystallographic axes

     site n.     atom                  positions (cryst. coord.)
         1        Ba     tau(   1) = (  0.5000000  0.5000000  0.8193910  )
         2        Ba     tau(   2) = (  0.5000000  0.5000000  0.1806090  )
         3        Y      tau(   3) = (  0.5000000  0.5000000  0.5000000  )
         4        Cu     tau(   4) = (  0.0000000  0.0000000  0.6466780  )
         5        Cu     tau(   5) = (  0.0000000  0.0000000  0.3533220  )
         6        Cu     tau(   6) = (  0.0000000  0.0000000  0.0000000  )
         7        O      tau(   7) = (  0.0000000  0.5000000  0.0000000  )
         8        O      tau(   8) = (  0.5000000  0.0000000  0.6206530  )
         9        O      tau(   9) = (  0.5000000  0.0000000  0.3793470  )
        10        O      tau(  10) = (  0.0000000  0.5000000  0.6216510  )
        11        O      tau(  11) = (  0.0000000  0.5000000  0.3783490  )
        12        O      tau(  12) = (  0.0000000  0.0000000  0.8408200  )
        13        O      tau(  13) = (  0.0000000  0.0000000  0.1591800  )

     number of k points=   256  Gaussian smearing, width (Ry)=  0.0100
                       cart. coord. in units 2pi/alat
        k(    1) = (   0.0000000   0.0000000   0.0000000), wk =   0.0078125
        k(    2) = (   0.0000000   0.0000000   0.0812918), wk =   0.0078125
        k(    3) = (   0.0000000   0.0000000  -0.1625836), wk =   0.0078125
        k(    4) = (   0.0000000   0.0000000  -0.0812918), wk =   0.0078125
        k(    5) = (   0.0000000   0.1224059   0.0000000), wk =   0.0078125
        k(    6) = (   0.0000000   0.1224059   0.0812918), wk =   0.0078125
        k(    7) = (   0.0000000   0.1224059  -0.1625836), wk =   0.0078125
        k(    8) = (   0.0000000   0.1224059  -0.0812918), wk =   0.0078125
        k(    9) = (   0.0000000   0.2448118   0.0000000), wk =   0.0078125
        k(   10) = (   0.0000000   0.2448118   0.0812918), wk =   0.0078125
        k(   11) = (   0.0000000   0.2448118  -0.1625836), wk =   0.0078125
        k(   12) = (   0.0000000   0.2448118  -0.0812918), wk =   0.0078125
        k(   13) = (   0.0000000   0.3672176   0.0000000), wk =   0.0078125
        k(   14) = (   0.0000000   0.3672176   0.0812918), wk =   0.0078125
        k(   15) = (   0.0000000   0.3672176  -0.1625836), wk =   0.0078125
        k(   16) = (   0.0000000   0.3672176  -0.0812918), wk =   0.0078125
        k(   17) = (   0.0000000  -0.4896235   0.0000000), wk =   0.0078125
        k(   18) = (   0.0000000  -0.4896235   0.0812918), wk =   0.0078125
        k(   19) = (   0.0000000  -0.4896235  -0.1625836), wk =   0.0078125
        k(   20) = (   0.0000000  -0.4896235  -0.0812918), wk =   0.0078125
        k(   21) = (   0.0000000  -0.3672176   0.0000000), wk =   0.0078125
        k(   22) = (   0.0000000  -0.3672176   0.0812918), wk =   0.0078125
        k(   23) = (   0.0000000  -0.3672176  -0.1625836), wk =   0.0078125
        k(   24) = (   0.0000000  -0.3672176  -0.0812918), wk =   0.0078125
        k(   25) = (   0.0000000  -0.2448118   0.0000000), wk =   0.0078125
        k(   26) = (   0.0000000  -0.2448118   0.0812918), wk =   0.0078125
        k(   27) = (   0.0000000  -0.2448118  -0.1625836), wk =   0.0078125
        k(   28) = (   0.0000000  -0.2448118  -0.0812918), wk =   0.0078125
        k(   29) = (   0.0000000  -0.1224059   0.0000000), wk =   0.0078125
        k(   30) = (   0.0000000  -0.1224059   0.0812918), wk =   0.0078125
        k(   31) = (   0.0000000  -0.1224059  -0.1625836), wk =   0.0078125
        k(   32) = (   0.0000000  -0.1224059  -0.0812918), wk =   0.0078125
        k(   33) = (   0.1250000   0.0000000   0.0000000), wk =   0.0078125
        k(   34) = (   0.1250000   0.0000000   0.0812918), wk =   0.0078125
        k(   35) = (   0.1250000   0.0000000  -0.1625836), wk =   0.0078125
        k(   36) = (   0.1250000   0.0000000  -0.0812918), wk =   0.0078125
        k(   37) = (   0.1250000   0.1224059   0.0000000), wk =   0.0078125
        k(   38) = (   0.1250000   0.1224059   0.0812918), wk =   0.0078125
        k(   39) = (   0.1250000   0.1224059  -0.1625836), wk =   0.0078125
        k(   40) = (   0.1250000   0.1224059  -0.0812918), wk =   0.0078125
        k(   41) = (   0.1250000   0.2448118   0.0000000), wk =   0.0078125
        k(   42) = (   0.1250000   0.2448118   0.0812918), wk =   0.0078125
        k(   43) = (   0.1250000   0.2448118  -0.1625836), wk =   0.0078125
        k(   44) = (   0.1250000   0.2448118  -0.0812918), wk =   0.0078125
        k(   45) = (   0.1250000   0.3672176   0.0000000), wk =   0.0078125
        k(   46) = (   0.1250000   0.3672176   0.0812918), wk =   0.0078125
        k(   47) = (   0.1250000   0.3672176  -0.1625836), wk =   0.0078125
        k(   48) = (   0.1250000   0.3672176  -0.0812918), wk =   0.0078125
        k(   49) = (   0.1250000  -0.4896235   0.0000000), wk =   0.0078125
        k(   50) = (   0.1250000  -0.4896235   0.0812918), wk =   0.0078125
        k(   51) = (   0.1250000  -0.4896235  -0.1625836), wk =   0.0078125
        k(   52) = (   0.1250000  -0.4896235  -0.0812918), wk =   0.0078125
        k(   53) = (   0.1250000  -0.3672176   0.0000000), wk =   0.0078125
        k(   54) = (   0.1250000  -0.3672176   0.0812918), wk =   0.0078125
        k(   55) = (   0.1250000  -0.3672176  -0.1625836), wk =   0.0078125
        k(   56) = (   0.1250000  -0.3672176  -0.0812918), wk =   0.0078125
        k(   57) = (   0.1250000  -0.2448118   0.0000000), wk =   0.0078125
        k(   58) = (   0.1250000  -0.2448118   0.0812918), wk =   0.0078125
        k(   59) = (   0.1250000  -0.2448118  -0.1625836), wk =   0.0078125
        k(   60) = (   0.1250000  -0.2448118  -0.0812918), wk =   0.0078125
        k(   61) = (   0.1250000  -0.1224059   0.0000000), wk =   0.0078125
        k(   62) = (   0.1250000  -0.1224059   0.0812918), wk =   0.0078125
        k(   63) = (   0.1250000  -0.1224059  -0.1625836), wk =   0.0078125
        k(   64) = (   0.1250000  -0.1224059  -0.0812918), wk =   0.0078125
        k(   65) = (   0.2500000   0.0000000   0.0000000), wk =   0.0078125
        k(   66) = (   0.2500000   0.0000000   0.0812918), wk =   0.0078125
        k(   67) = (   0.2500000   0.0000000  -0.1625836), wk =   0.0078125
        k(   68) = (   0.2500000   0.0000000  -0.0812918), wk =   0.0078125
        k(   69) = (   0.2500000   0.1224059   0.0000000), wk =   0.0078125
        k(   70) = (   0.2500000   0.1224059   0.0812918), wk =   0.0078125
        k(   71) = (   0.2500000   0.1224059  -0.1625836), wk =   0.0078125
        k(   72) = (   0.2500000   0.1224059  -0.0812918), wk =   0.0078125
        k(   73) = (   0.2500000   0.2448118   0.0000000), wk =   0.0078125
        k(   74) = (   0.2500000   0.2448118   0.0812918), wk =   0.0078125
        k(   75) = (   0.2500000   0.2448118  -0.1625836), wk =   0.0078125
        k(   76) = (   0.2500000   0.2448118  -0.0812918), wk =   0.0078125
        k(   77) = (   0.2500000   0.3672176   0.0000000), wk =   0.0078125
        k(   78) = (   0.2500000   0.3672176   0.0812918), wk =   0.0078125
        k(   79) = (   0.2500000   0.3672176  -0.1625836), wk =   0.0078125
        k(   80) = (   0.2500000   0.3672176  -0.0812918), wk =   0.0078125
        k(   81) = (   0.2500000  -0.4896235   0.0000000), wk =   0.0078125
        k(   82) = (   0.2500000  -0.4896235   0.0812918), wk =   0.0078125
        k(   83) = (   0.2500000  -0.4896235  -0.1625836), wk =   0.0078125
        k(   84) = (   0.2500000  -0.4896235  -0.0812918), wk =   0.0078125
        k(   85) = (   0.2500000  -0.3672176   0.0000000), wk =   0.0078125
        k(   86) = (   0.2500000  -0.3672176   0.0812918), wk =   0.0078125
        k(   87) = (   0.2500000  -0.3672176  -0.1625836), wk =   0.0078125
        k(   88) = (   0.2500000  -0.3672176  -0.0812918), wk =   0.0078125
        k(   89) = (   0.2500000  -0.2448118   0.0000000), wk =   0.0078125
        k(   90) = (   0.2500000  -0.2448118   0.0812918), wk =   0.0078125
        k(   91) = (   0.2500000  -0.2448118  -0.1625836), wk =   0.0078125
        k(   92) = (   0.2500000  -0.2448118  -0.0812918), wk =   0.0078125
        k(   93) = (   0.2500000  -0.1224059   0.0000000), wk =   0.0078125
        k(   94) = (   0.2500000  -0.1224059   0.0812918), wk =   0.0078125
        k(   95) = (   0.2500000  -0.1224059  -0.1625836), wk =   0.0078125
        k(   96) = (   0.2500000  -0.1224059  -0.0812918), wk =   0.0078125
        k(   97) = (   0.3750000   0.0000000   0.0000000), wk =   0.0078125
        k(   98) = (   0.3750000   0.0000000   0.0812918), wk =   0.0078125
        k(   99) = (   0.3750000   0.0000000  -0.1625836), wk =   0.0078125
        k(  100) = (   0.3750000   0.0000000  -0.0812918), wk =   0.0078125
        k(  101) = (   0.3750000   0.1224059   0.0000000), wk =   0.0078125
        k(  102) = (   0.3750000   0.1224059   0.0812918), wk =   0.0078125
        k(  103) = (   0.3750000   0.1224059  -0.1625836), wk =   0.0078125
        k(  104) = (   0.3750000   0.1224059  -0.0812918), wk =   0.0078125
        k(  105) = (   0.3750000   0.2448118   0.0000000), wk =   0.0078125
        k(  106) = (   0.3750000   0.2448118   0.0812918), wk =   0.0078125
        k(  107) = (   0.3750000   0.2448118  -0.1625836), wk =   0.0078125
        k(  108) = (   0.3750000   0.2448118  -0.0812918), wk =   0.0078125
        k(  109) = (   0.3750000   0.3672176   0.0000000), wk =   0.0078125
        k(  110) = (   0.3750000   0.3672176   0.0812918), wk =   0.0078125
        k(  111) = (   0.3750000   0.3672176  -0.1625836), wk =   0.0078125
        k(  112) = (   0.3750000   0.3672176  -0.0812918), wk =   0.0078125
        k(  113) = (   0.3750000  -0.4896235   0.0000000), wk =   0.0078125
        k(  114) = (   0.3750000  -0.4896235   0.0812918), wk =   0.0078125
        k(  115) = (   0.3750000  -0.4896235  -0.1625836), wk =   0.0078125
        k(  116) = (   0.3750000  -0.4896235  -0.0812918), wk =   0.0078125
        k(  117) = (   0.3750000  -0.3672176   0.0000000), wk =   0.0078125
        k(  118) = (   0.3750000  -0.3672176   0.0812918), wk =   0.0078125
        k(  119) = (   0.3750000  -0.3672176  -0.1625836), wk =   0.0078125
        k(  120) = (   0.3750000  -0.3672176  -0.0812918), wk =   0.0078125
        k(  121) = (   0.3750000  -0.2448118   0.0000000), wk =   0.0078125
        k(  122) = (   0.3750000  -0.2448118   0.0812918), wk =   0.0078125
        k(  123) = (   0.3750000  -0.2448118  -0.1625836), wk =   0.0078125
        k(  124) = (   0.3750000  -0.2448118  -0.0812918), wk =   0.0078125
        k(  125) = (   0.3750000  -0.1224059   0.0000000), wk =   0.0078125
        k(  126) = (   0.3750000  -0.1224059   0.0812918), wk =   0.0078125
        k(  127) = (   0.3750000  -0.1224059  -0.1625836), wk =   0.0078125
        k(  128) = (   0.3750000  -0.1224059  -0.0812918), wk =   0.0078125
        k(  129) = (  -0.5000000   0.0000000   0.0000000), wk =   0.0078125
        k(  130) = (  -0.5000000   0.0000000   0.0812918), wk =   0.0078125
        k(  131) = (  -0.5000000   0.0000000  -0.1625836), wk =   0.0078125
        k(  132) = (  -0.5000000   0.0000000  -0.0812918), wk =   0.0078125
        k(  133) = (  -0.5000000   0.1224059   0.0000000), wk =   0.0078125
        k(  134) = (  -0.5000000   0.1224059   0.0812918), wk =   0.0078125
        k(  135) = (  -0.5000000   0.1224059  -0.1625836), wk =   0.0078125
        k(  136) = (  -0.5000000   0.1224059  -0.0812918), wk =   0.0078125
        k(  137) = (  -0.5000000   0.2448118   0.0000000), wk =   0.0078125
        k(  138) = (  -0.5000000   0.2448118   0.0812918), wk =   0.0078125
        k(  139) = (  -0.5000000   0.2448118  -0.1625836), wk =   0.0078125
        k(  140) = (  -0.5000000   0.2448118  -0.0812918), wk =   0.0078125
        k(  141) = (  -0.5000000   0.3672176   0.0000000), wk =   0.0078125
        k(  142) = (  -0.5000000   0.3672176   0.0812918), wk =   0.0078125
        k(  143) = (  -0.5000000   0.3672176  -0.1625836), wk =   0.0078125
        k(  144) = (  -0.5000000   0.3672176  -0.0812918), wk =   0.0078125
        k(  145) = (  -0.5000000  -0.4896235   0.0000000), wk =   0.0078125
        k(  146) = (  -0.5000000  -0.4896235   0.0812918), wk =   0.0078125
        k(  147) = (  -0.5000000  -0.4896235  -0.1625836), wk =   0.0078125
        k(  148) = (  -0.5000000  -0.4896235  -0.0812918), wk =   0.0078125
        k(  149) = (  -0.5000000  -0.3672176   0.0000000), wk =   0.0078125
        k(  150) = (  -0.5000000  -0.3672176   0.0812918), wk =   0.0078125
        k(  151) = (  -0.5000000  -0.3672176  -0.1625836), wk =   0.0078125
        k(  152) = (  -0.5000000  -0.3672176  -0.0812918), wk =   0.0078125
        k(  153) = (  -0.5000000  -0.2448118   0.0000000), wk =   0.0078125
        k(  154) = (  -0.5000000  -0.2448118   0.0812918), wk =   0.0078125
        k(  155) = (  -0.5000000  -0.2448118  -0.1625836), wk =   0.0078125
        k(  156) = (  -0.5000000  -0.2448118  -0.0812918), wk =   0.0078125
        k(  157) = (  -0.5000000  -0.1224059   0.0000000), wk =   0.0078125
        k(  158) = (  -0.5000000  -0.1224059   0.0812918), wk =   0.0078125
        k(  159) = (  -0.5000000  -0.1224059  -0.1625836), wk =   0.0078125
        k(  160) = (  -0.5000000  -0.1224059  -0.0812918), wk =   0.0078125
        k(  161) = (  -0.3750000   0.0000000   0.0000000), wk =   0.0078125
        k(  162) = (  -0.3750000   0.0000000   0.0812918), wk =   0.0078125
        k(  163) = (  -0.3750000   0.0000000  -0.1625836), wk =   0.0078125
        k(  164) = (  -0.3750000   0.0000000  -0.0812918), wk =   0.0078125
        k(  165) = (  -0.3750000   0.1224059   0.0000000), wk =   0.0078125
        k(  166) = (  -0.3750000   0.1224059   0.0812918), wk =   0.0078125
        k(  167) = (  -0.3750000   0.1224059  -0.1625836), wk =   0.0078125
        k(  168) = (  -0.3750000   0.1224059  -0.0812918), wk =   0.0078125
        k(  169) = (  -0.3750000   0.2448118   0.0000000), wk =   0.0078125
        k(  170) = (  -0.3750000   0.2448118   0.0812918), wk =   0.0078125
        k(  171) = (  -0.3750000   0.2448118  -0.1625836), wk =   0.0078125
        k(  172) = (  -0.3750000   0.2448118  -0.0812918), wk =   0.0078125
        k(  173) = (  -0.3750000   0.3672176   0.0000000), wk =   0.0078125
        k(  174) = (  -0.3750000   0.3672176   0.0812918), wk =   0.0078125
        k(  175) = (  -0.3750000   0.3672176  -0.1625836), wk =   0.0078125
        k(  176) = (  -0.3750000   0.3672176  -0.0812918), wk =   0.0078125
        k(  177) = (  -0.3750000  -0.4896235   0.0000000), wk =   0.0078125
        k(  178) = (  -0.3750000  -0.4896235   0.0812918), wk =   0.0078125
        k(  179) = (  -0.3750000  -0.4896235  -0.1625836), wk =   0.0078125
        k(  180) = (  -0.3750000  -0.4896235  -0.0812918), wk =   0.0078125
        k(  181) = (  -0.3750000  -0.3672176   0.0000000), wk =   0.0078125
        k(  182) = (  -0.3750000  -0.3672176   0.0812918), wk =   0.0078125
        k(  183) = (  -0.3750000  -0.3672176  -0.1625836), wk =   0.0078125
        k(  184) = (  -0.3750000  -0.3672176  -0.0812918), wk =   0.0078125
        k(  185) = (  -0.3750000  -0.2448118   0.0000000), wk =   0.0078125
        k(  186) = (  -0.3750000  -0.2448118   0.0812918), wk =   0.0078125
        k(  187) = (  -0.3750000  -0.2448118  -0.1625836), wk =   0.0078125
        k(  188) = (  -0.3750000  -0.2448118  -0.0812918), wk =   0.0078125
        k(  189) = (  -0.3750000  -0.1224059   0.0000000), wk =   0.0078125
        k(  190) = (  -0.3750000  -0.1224059   0.0812918), wk =   0.0078125
        k(  191) = (  -0.3750000  -0.1224059  -0.1625836), wk =   0.0078125
        k(  192) = (  -0.3750000  -0.1224059  -0.0812918), wk =   0.0078125
        k(  193) = (  -0.2500000   0.0000000   0.0000000), wk =   0.0078125
        k(  194) = (  -0.2500000   0.0000000   0.0812918), wk =   0.0078125
        k(  195) = (  -0.2500000   0.0000000  -0.1625836), wk =   0.0078125
        k(  196) = (  -0.2500000   0.0000000  -0.0812918), wk =   0.0078125
        k(  197) = (  -0.2500000   0.1224059   0.0000000), wk =   0.0078125
        k(  198) = (  -0.2500000   0.1224059   0.0812918), wk =   0.0078125
        k(  199) = (  -0.2500000   0.1224059  -0.1625836), wk =   0.0078125
        k(  200) = (  -0.2500000   0.1224059  -0.0812918), wk =   0.0078125
        k(  201) = (  -0.2500000   0.2448118   0.0000000), wk =   0.0078125
        k(  202) = (  -0.2500000   0.2448118   0.0812918), wk =   0.0078125
        k(  203) = (  -0.2500000   0.2448118  -0.1625836), wk =   0.0078125
        k(  204) = (  -0.2500000   0.2448118  -0.0812918), wk =   0.0078125
        k(  205) = (  -0.2500000   0.3672176   0.0000000), wk =   0.0078125
        k(  206) = (  -0.2500000   0.3672176   0.0812918), wk =   0.0078125
        k(  207) = (  -0.2500000   0.3672176  -0.1625836), wk =   0.0078125
        k(  208) = (  -0.2500000   0.3672176  -0.0812918), wk =   0.0078125
        k(  209) = (  -0.2500000  -0.4896235   0.0000000), wk =   0.0078125
        k(  210) = (  -0.2500000  -0.4896235   0.0812918), wk =   0.0078125
        k(  211) = (  -0.2500000  -0.4896235  -0.1625836), wk =   0.0078125
        k(  212) = (  -0.2500000  -0.4896235  -0.0812918), wk =   0.0078125
        k(  213) = (  -0.2500000  -0.3672176   0.0000000), wk =   0.0078125
        k(  214) = (  -0.2500000  -0.3672176   0.0812918), wk =   0.0078125
        k(  215) = (  -0.2500000  -0.3672176  -0.1625836), wk =   0.0078125
        k(  216) = (  -0.2500000  -0.3672176  -0.0812918), wk =   0.0078125
        k(  217) = (  -0.2500000  -0.2448118   0.0000000), wk =   0.0078125
        k(  218) = (  -0.2500000  -0.2448118   0.0812918), wk =   0.0078125
        k(  219) = (  -0.2500000  -0.2448118  -0.1625836), wk =   0.0078125
        k(  220) = (  -0.2500000  -0.2448118  -0.0812918), wk =   0.0078125
        k(  221) = (  -0.2500000  -0.1224059   0.0000000), wk =   0.0078125
        k(  222) = (  -0.2500000  -0.1224059   0.0812918), wk =   0.0078125
        k(  223) = (  -0.2500000  -0.1224059  -0.1625836), wk =   0.0078125
        k(  224) = (  -0.2500000  -0.1224059  -0.0812918), wk =   0.0078125
        k(  225) = (  -0.1250000   0.0000000   0.0000000), wk =   0.0078125
        k(  226) = (  -0.1250000   0.0000000   0.0812918), wk =   0.0078125
        k(  227) = (  -0.1250000   0.0000000  -0.1625836), wk =   0.0078125
        k(  228) = (  -0.1250000   0.0000000  -0.0812918), wk =   0.0078125
        k(  229) = (  -0.1250000   0.1224059   0.0000000), wk =   0.0078125
        k(  230) = (  -0.1250000   0.1224059   0.0812918), wk =   0.0078125
        k(  231) = (  -0.1250000   0.1224059  -0.1625836), wk =   0.0078125
        k(  232) = (  -0.1250000   0.1224059  -0.0812918), wk =   0.0078125
        k(  233) = (  -0.1250000   0.2448118   0.0000000), wk =   0.0078125
        k(  234) = (  -0.1250000   0.2448118   0.0812918), wk =   0.0078125
        k(  235) = (  -0.1250000   0.2448118  -0.1625836), wk =   0.0078125
        k(  236) = (  -0.1250000   0.2448118  -0.0812918), wk =   0.0078125
        k(  237) = (  -0.1250000   0.3672176   0.0000000), wk =   0.0078125
        k(  238) = (  -0.1250000   0.3672176   0.0812918), wk =   0.0078125
        k(  239) = (  -0.1250000   0.3672176  -0.1625836), wk =   0.0078125
        k(  240) = (  -0.1250000   0.3672176  -0.0812918), wk =   0.0078125
        k(  241) = (  -0.1250000  -0.4896235   0.0000000), wk =   0.0078125
        k(  242) = (  -0.1250000  -0.4896235   0.0812918), wk =   0.0078125
        k(  243) = (  -0.1250000  -0.4896235  -0.1625836), wk =   0.0078125
        k(  244) = (  -0.1250000  -0.4896235  -0.0812918), wk =   0.0078125
        k(  245) = (  -0.1250000  -0.3672176   0.0000000), wk =   0.0078125
        k(  246) = (  -0.1250000  -0.3672176   0.0812918), wk =   0.0078125
        k(  247) = (  -0.1250000  -0.3672176  -0.1625836), wk =   0.0078125
        k(  248) = (  -0.1250000  -0.3672176  -0.0812918), wk =   0.0078125
        k(  249) = (  -0.1250000  -0.2448118   0.0000000), wk =   0.0078125
        k(  250) = (  -0.1250000  -0.2448118   0.0812918), wk =   0.0078125
        k(  251) = (  -0.1250000  -0.2448118  -0.1625836), wk =   0.0078125
        k(  252) = (  -0.1250000  -0.2448118  -0.0812918), wk =   0.0078125
        k(  253) = (  -0.1250000  -0.1224059   0.0000000), wk =   0.0078125
        k(  254) = (  -0.1250000  -0.1224059   0.0812918), wk =   0.0078125
        k(  255) = (  -0.1250000  -0.1224059  -0.1625836), wk =   0.0078125
        k(  256) = (  -0.1250000  -0.1224059  -0.0812918), wk =   0.0078125

                       cryst. coord.
        k(    1) = (   0.0000000   0.0000000   0.0000000), wk =   0.0078125
        k(    2) = (   0.0000000   0.0000000   0.2500000), wk =   0.0078125
        k(    3) = (   0.0000000   0.0000000  -0.5000000), wk =   0.0078125
        k(    4) = (   0.0000000   0.0000000  -0.2500000), wk =   0.0078125
        k(    5) = (   0.0000000   0.1250000   0.0000000), wk =   0.0078125
        k(    6) = (   0.0000000   0.1250000   0.2500000), wk =   0.0078125
        k(    7) = (   0.0000000   0.1250000  -0.5000000), wk =   0.0078125
        k(    8) = (   0.0000000   0.1250000  -0.2500000), wk =   0.0078125
        k(    9) = (   0.0000000   0.2500000   0.0000000), wk =   0.0078125
        k(   10) = (   0.0000000   0.2500000   0.2500000), wk =   0.0078125
        k(   11) = (   0.0000000   0.2500000  -0.5000000), wk =   0.0078125
        k(   12) = (   0.0000000   0.2500000  -0.2500000), wk =   0.0078125
        k(   13) = (   0.0000000   0.3750000   0.0000000), wk =   0.0078125
        k(   14) = (   0.0000000   0.3750000   0.2500000), wk =   0.0078125
        k(   15) = (   0.0000000   0.3750000  -0.5000000), wk =   0.0078125
        k(   16) = (   0.0000000   0.3750000  -0.2500000), wk =   0.0078125
        k(   17) = (   0.0000000  -0.5000000   0.0000000), wk =   0.0078125
        k(   18) = (   0.0000000  -0.5000000   0.2500000), wk =   0.0078125
        k(   19) = (   0.0000000  -0.5000000  -0.5000000), wk =   0.0078125
        k(   20) = (   0.0000000  -0.5000000  -0.2500000), wk =   0.0078125
        k(   21) = (   0.0000000  -0.3750000   0.0000000), wk =   0.0078125
        k(   22) = (   0.0000000  -0.3750000   0.2500000), wk =   0.0078125
        k(   23) = (   0.0000000  -0.3750000  -0.5000000), wk =   0.0078125
        k(   24) = (   0.0000000  -0.3750000  -0.2500000), wk =   0.0078125
        k(   25) = (   0.0000000  -0.2500000   0.0000000), wk =   0.0078125
        k(   26) = (   0.0000000  -0.2500000   0.2500000), wk =   0.0078125
        k(   27) = (   0.0000000  -0.2500000  -0.5000000), wk =   0.0078125
        k(   28) = (   0.0000000  -0.2500000  -0.2500000), wk =   0.0078125
        k(   29) = (   0.0000000  -0.1250000   0.0000000), wk =   0.0078125
        k(   30) = (   0.0000000  -0.1250000   0.2500000), wk =   0.0078125
        k(   31) = (   0.0000000  -0.1250000  -0.5000000), wk =   0.0078125
        k(   32) = (   0.0000000  -0.1250000  -0.2500000), wk =   0.0078125
        k(   33) = (   0.1250000   0.0000000   0.0000000), wk =   0.0078125
        k(   34) = (   0.1250000   0.0000000   0.2500000), wk =   0.0078125
        k(   35) = (   0.1250000   0.0000000  -0.5000000), wk =   0.0078125
        k(   36) = (   0.1250000   0.0000000  -0.2500000), wk =   0.0078125
        k(   37) = (   0.1250000   0.1250000   0.0000000), wk =   0.0078125
        k(   38) = (   0.1250000   0.1250000   0.2500000), wk =   0.0078125
        k(   39) = (   0.1250000   0.1250000  -0.5000000), wk =   0.0078125
        k(   40) = (   0.1250000   0.1250000  -0.2500000), wk =   0.0078125
        k(   41) = (   0.1250000   0.2500000   0.0000000), wk =   0.0078125
        k(   42) = (   0.1250000   0.2500000   0.2500000), wk =   0.0078125
        k(   43) = (   0.1250000   0.2500000  -0.5000000), wk =   0.0078125
        k(   44) = (   0.1250000   0.2500000  -0.2500000), wk =   0.0078125
        k(   45) = (   0.1250000   0.3750000   0.0000000), wk =   0.0078125
        k(   46) = (   0.1250000   0.3750000   0.2500000), wk =   0.0078125
        k(   47) = (   0.1250000   0.3750000  -0.5000000), wk =   0.0078125
        k(   48) = (   0.1250000   0.3750000  -0.2500000), wk =   0.0078125
        k(   49) = (   0.1250000  -0.5000000   0.0000000), wk =   0.0078125
        k(   50) = (   0.1250000  -0.5000000   0.2500000), wk =   0.0078125
        k(   51) = (   0.1250000  -0.5000000  -0.5000000), wk =   0.0078125
        k(   52) = (   0.1250000  -0.5000000  -0.2500000), wk =   0.0078125
        k(   53) = (   0.1250000  -0.3750000   0.0000000), wk =   0.0078125
        k(   54) = (   0.1250000  -0.3750000   0.2500000), wk =   0.0078125
        k(   55) = (   0.1250000  -0.3750000  -0.5000000), wk =   0.0078125
        k(   56) = (   0.1250000  -0.3750000  -0.2500000), wk =   0.0078125
        k(   57) = (   0.1250000  -0.2500000   0.0000000), wk =   0.0078125
        k(   58) = (   0.1250000  -0.2500000   0.2500000), wk =   0.0078125
        k(   59) = (   0.1250000  -0.2500000  -0.5000000), wk =   0.0078125
        k(   60) = (   0.1250000  -0.2500000  -0.2500000), wk =   0.0078125
        k(   61) = (   0.1250000  -0.1250000   0.0000000), wk =   0.0078125
        k(   62) = (   0.1250000  -0.1250000   0.2500000), wk =   0.0078125
        k(   63) = (   0.1250000  -0.1250000  -0.5000000), wk =   0.0078125
        k(   64) = (   0.1250000  -0.1250000  -0.2500000), wk =   0.0078125
        k(   65) = (   0.2500000   0.0000000   0.0000000), wk =   0.0078125
        k(   66) = (   0.2500000   0.0000000   0.2500000), wk =   0.0078125
        k(   67) = (   0.2500000   0.0000000  -0.5000000), wk =   0.0078125
        k(   68) = (   0.2500000   0.0000000  -0.2500000), wk =   0.0078125
        k(   69) = (   0.2500000   0.1250000   0.0000000), wk =   0.0078125
        k(   70) = (   0.2500000   0.1250000   0.2500000), wk =   0.0078125
        k(   71) = (   0.2500000   0.1250000  -0.5000000), wk =   0.0078125
        k(   72) = (   0.2500000   0.1250000  -0.2500000), wk =   0.0078125
        k(   73) = (   0.2500000   0.2500000   0.0000000), wk =   0.0078125
        k(   74) = (   0.2500000   0.2500000   0.2500000), wk =   0.0078125
        k(   75) = (   0.2500000   0.2500000  -0.5000000), wk =   0.0078125
        k(   76) = (   0.2500000   0.2500000  -0.2500000), wk =   0.0078125
        k(   77) = (   0.2500000   0.3750000   0.0000000), wk =   0.0078125
        k(   78) = (   0.2500000   0.3750000   0.2500000), wk =   0.0078125
        k(   79) = (   0.2500000   0.3750000  -0.5000000), wk =   0.0078125
        k(   80) = (   0.2500000   0.3750000  -0.2500000), wk =   0.0078125
        k(   81) = (   0.2500000  -0.5000000   0.0000000), wk =   0.0078125
        k(   82) = (   0.2500000  -0.5000000   0.2500000), wk =   0.0078125
        k(   83) = (   0.2500000  -0.5000000  -0.5000000), wk =   0.0078125
        k(   84) = (   0.2500000  -0.5000000  -0.2500000), wk =   0.0078125
        k(   85) = (   0.2500000  -0.3750000   0.0000000), wk =   0.0078125
        k(   86) = (   0.2500000  -0.3750000   0.2500000), wk =   0.0078125
        k(   87) = (   0.2500000  -0.3750000  -0.5000000), wk =   0.0078125
        k(   88) = (   0.2500000  -0.3750000  -0.2500000), wk =   0.0078125
        k(   89) = (   0.2500000  -0.2500000   0.0000000), wk =   0.0078125
        k(   90) = (   0.2500000  -0.2500000   0.2500000), wk =   0.0078125
        k(   91) = (   0.2500000  -0.2500000  -0.5000000), wk =   0.0078125
        k(   92) = (   0.2500000  -0.2500000  -0.2500000), wk =   0.0078125
        k(   93) = (   0.2500000  -0.1250000   0.0000000), wk =   0.0078125
        k(   94) = (   0.2500000  -0.1250000   0.2500000), wk =   0.0078125
        k(   95) = (   0.2500000  -0.1250000  -0.5000000), wk =   0.0078125
        k(   96) = (   0.2500000  -0.1250000  -0.2500000), wk =   0.0078125
        k(   97) = (   0.3750000   0.0000000   0.0000000), wk =   0.0078125
        k(   98) = (   0.3750000   0.0000000   0.2500000), wk =   0.0078125
        k(   99) = (   0.3750000   0.0000000  -0.5000000), wk =   0.0078125
        k(  100) = (   0.3750000   0.0000000  -0.2500000), wk =   0.0078125
        k(  101) = (   0.3750000   0.1250000   0.0000000), wk =   0.0078125
        k(  102) = (   0.3750000   0.1250000   0.2500000), wk =   0.0078125
        k(  103) = (   0.3750000   0.1250000  -0.5000000), wk =   0.0078125
        k(  104) = (   0.3750000   0.1250000  -0.2500000), wk =   0.0078125
        k(  105) = (   0.3750000   0.2500000   0.0000000), wk =   0.0078125
        k(  106) = (   0.3750000   0.2500000   0.2500000), wk =   0.0078125
        k(  107) = (   0.3750000   0.2500000  -0.5000000), wk =   0.0078125
        k(  108) = (   0.3750000   0.2500000  -0.2500000), wk =   0.0078125
        k(  109) = (   0.3750000   0.3750000   0.0000000), wk =   0.0078125
        k(  110) = (   0.3750000   0.3750000   0.2500000), wk =   0.0078125
        k(  111) = (   0.3750000   0.3750000  -0.5000000), wk =   0.0078125
        k(  112) = (   0.3750000   0.3750000  -0.2500000), wk =   0.0078125
        k(  113) = (   0.3750000  -0.5000000   0.0000000), wk =   0.0078125
        k(  114) = (   0.3750000  -0.5000000   0.2500000), wk =   0.0078125
        k(  115) = (   0.3750000  -0.5000000  -0.5000000), wk =   0.0078125
        k(  116) = (   0.3750000  -0.5000000  -0.2500000), wk =   0.0078125
        k(  117) = (   0.3750000  -0.3750000   0.0000000), wk =   0.0078125
        k(  118) = (   0.3750000  -0.3750000   0.2500000), wk =   0.0078125
        k(  119) = (   0.3750000  -0.3750000  -0.5000000), wk =   0.0078125
        k(  120) = (   0.3750000  -0.3750000  -0.2500000), wk =   0.0078125
        k(  121) = (   0.3750000  -0.2500000   0.0000000), wk =   0.0078125
        k(  122) = (   0.3750000  -0.2500000   0.2500000), wk =   0.0078125
        k(  123) = (   0.3750000  -0.2500000  -0.5000000), wk =   0.0078125
        k(  124) = (   0.3750000  -0.2500000  -0.2500000), wk =   0.0078125
        k(  125) = (   0.3750000  -0.1250000   0.0000000), wk =   0.0078125
        k(  126) = (   0.3750000  -0.1250000   0.2500000), wk =   0.0078125
        k(  127) = (   0.3750000  -0.1250000  -0.5000000), wk =   0.0078125
        k(  128) = (   0.3750000  -0.1250000  -0.2500000), wk =   0.0078125
        k(  129) = (  -0.5000000   0.0000000   0.0000000), wk =   0.0078125
        k(  130) = (  -0.5000000   0.0000000   0.2500000), wk =   0.0078125
        k(  131) = (  -0.5000000   0.0000000  -0.5000000), wk =   0.0078125
        k(  132) = (  -0.5000000   0.0000000  -0.2500000), wk =   0.0078125
        k(  133) = (  -0.5000000   0.1250000   0.0000000), wk =   0.0078125
        k(  134) = (  -0.5000000   0.1250000   0.2500000), wk =   0.0078125
        k(  135) = (  -0.5000000   0.1250000  -0.5000000), wk =   0.0078125
        k(  136) = (  -0.5000000   0.1250000  -0.2500000), wk =   0.0078125
        k(  137) = (  -0.5000000   0.2500000   0.0000000), wk =   0.0078125
        k(  138) = (  -0.5000000   0.2500000   0.2500000), wk =   0.0078125
        k(  139) = (  -0.5000000   0.2500000  -0.5000000), wk =   0.0078125
        k(  140) = (  -0.5000000   0.2500000  -0.2500000), wk =   0.0078125
        k(  141) = (  -0.5000000   0.3750000   0.0000000), wk =   0.0078125
        k(  142) = (  -0.5000000   0.3750000   0.2500000), wk =   0.0078125
        k(  143) = (  -0.5000000   0.3750000  -0.5000000), wk =   0.0078125
        k(  144) = (  -0.5000000   0.3750000  -0.2500000), wk =   0.0078125
        k(  145) = (  -0.5000000  -0.5000000   0.0000000), wk =   0.0078125
        k(  146) = (  -0.5000000  -0.5000000   0.2500000), wk =   0.0078125
        k(  147) = (  -0.5000000  -0.5000000  -0.5000000), wk =   0.0078125
        k(  148) = (  -0.5000000  -0.5000000  -0.2500000), wk =   0.0078125
        k(  149) = (  -0.5000000  -0.3750000   0.0000000), wk =   0.0078125
        k(  150) = (  -0.5000000  -0.3750000   0.2500000), wk =   0.0078125
        k(  151) = (  -0.5000000  -0.3750000  -0.5000000), wk =   0.0078125
        k(  152) = (  -0.5000000  -0.3750000  -0.2500000), wk =   0.0078125
        k(  153) = (  -0.5000000  -0.2500000   0.0000000), wk =   0.0078125
        k(  154) = (  -0.5000000  -0.2500000   0.2500000), wk =   0.0078125
        k(  155) = (  -0.5000000  -0.2500000  -0.5000000), wk =   0.0078125
        k(  156) = (  -0.5000000  -0.2500000  -0.2500000), wk =   0.0078125
        k(  157) = (  -0.5000000  -0.1250000   0.0000000), wk =   0.0078125
        k(  158) = (  -0.5000000  -0.1250000   0.2500000), wk =   0.0078125
        k(  159) = (  -0.5000000  -0.1250000  -0.5000000), wk =   0.0078125
        k(  160) = (  -0.5000000  -0.1250000  -0.2500000), wk =   0.0078125
        k(  161) = (  -0.3750000   0.0000000   0.0000000), wk =   0.0078125
        k(  162) = (  -0.3750000   0.0000000   0.2500000), wk =   0.0078125
        k(  163) = (  -0.3750000   0.0000000  -0.5000000), wk =   0.0078125
        k(  164) = (  -0.3750000   0.0000000  -0.2500000), wk =   0.0078125
        k(  165) = (  -0.3750000   0.1250000   0.0000000), wk =   0.0078125
        k(  166) = (  -0.3750000   0.1250000   0.2500000), wk =   0.0078125
        k(  167) = (  -0.3750000   0.1250000  -0.5000000), wk =   0.0078125
        k(  168) = (  -0.3750000   0.1250000  -0.2500000), wk =   0.0078125
        k(  169) = (  -0.3750000   0.2500000   0.0000000), wk =   0.0078125
        k(  170) = (  -0.3750000   0.2500000   0.2500000), wk =   0.0078125
        k(  171) = (  -0.3750000   0.2500000  -0.5000000), wk =   0.0078125
        k(  172) = (  -0.3750000   0.2500000  -0.2500000), wk =   0.0078125
        k(  173) = (  -0.3750000   0.3750000   0.0000000), wk =   0.0078125
        k(  174) = (  -0.3750000   0.3750000   0.2500000), wk =   0.0078125
        k(  175) = (  -0.3750000   0.3750000  -0.5000000), wk =   0.0078125
        k(  176) = (  -0.3750000   0.3750000  -0.2500000), wk =   0.0078125
        k(  177) = (  -0.3750000  -0.5000000   0.0000000), wk =   0.0078125
        k(  178) = (  -0.3750000  -0.5000000   0.2500000), wk =   0.0078125
        k(  179) = (  -0.3750000  -0.5000000  -0.5000000), wk =   0.0078125
        k(  180) = (  -0.3750000  -0.5000000  -0.2500000), wk =   0.0078125
        k(  181) = (  -0.3750000  -0.3750000   0.0000000), wk =   0.0078125
        k(  182) = (  -0.3750000  -0.3750000   0.2500000), wk =   0.0078125
        k(  183) = (  -0.3750000  -0.3750000  -0.5000000), wk =   0.0078125
        k(  184) = (  -0.3750000  -0.3750000  -0.2500000), wk =   0.0078125
        k(  185) = (  -0.3750000  -0.2500000   0.0000000), wk =   0.0078125
        k(  186) = (  -0.3750000  -0.2500000   0.2500000), wk =   0.0078125
        k(  187) = (  -0.3750000  -0.2500000  -0.5000000), wk =   0.0078125
        k(  188) = (  -0.3750000  -0.2500000  -0.2500000), wk =   0.0078125
        k(  189) = (  -0.3750000  -0.1250000   0.0000000), wk =   0.0078125
        k(  190) = (  -0.3750000  -0.1250000   0.2500000), wk =   0.0078125
        k(  191) = (  -0.3750000  -0.1250000  -0.5000000), wk =   0.0078125
        k(  192) = (  -0.3750000  -0.1250000  -0.2500000), wk =   0.0078125
        k(  193) = (  -0.2500000   0.0000000   0.0000000), wk =   0.0078125
        k(  194) = (  -0.2500000   0.0000000   0.2500000), wk =   0.0078125
        k(  195) = (  -0.2500000   0.0000000  -0.5000000), wk =   0.0078125
        k(  196) = (  -0.2500000   0.0000000  -0.2500000), wk =   0.0078125
        k(  197) = (  -0.2500000   0.1250000   0.0000000), wk =   0.0078125
        k(  198) = (  -0.2500000   0.1250000   0.2500000), wk =   0.0078125
        k(  199) = (  -0.2500000   0.1250000  -0.5000000), wk =   0.0078125
        k(  200) = (  -0.2500000   0.1250000  -0.2500000), wk =   0.0078125
        k(  201) = (  -0.2500000   0.2500000   0.0000000), wk =   0.0078125
        k(  202) = (  -0.2500000   0.2500000   0.2500000), wk =   0.0078125
        k(  203) = (  -0.2500000   0.2500000  -0.5000000), wk =   0.0078125
        k(  204) = (  -0.2500000   0.2500000  -0.2500000), wk =   0.0078125
        k(  205) = (  -0.2500000   0.3750000   0.0000000), wk =   0.0078125
        k(  206) = (  -0.2500000   0.3750000   0.2500000), wk =   0.0078125
        k(  207) = (  -0.2500000   0.3750000  -0.5000000), wk =   0.0078125
        k(  208) = (  -0.2500000   0.3750000  -0.2500000), wk =   0.0078125
        k(  209) = (  -0.2500000  -0.5000000   0.0000000), wk =   0.0078125
        k(  210) = (  -0.2500000  -0.5000000   0.2500000), wk =   0.0078125
        k(  211) = (  -0.2500000  -0.5000000  -0.5000000), wk =   0.0078125
        k(  212) = (  -0.2500000  -0.5000000  -0.2500000), wk =   0.0078125
        k(  213) = (  -0.2500000  -0.3750000   0.0000000), wk =   0.0078125
        k(  214) = (  -0.2500000  -0.3750000   0.2500000), wk =   0.0078125
        k(  215) = (  -0.2500000  -0.3750000  -0.5000000), wk =   0.0078125
        k(  216) = (  -0.2500000  -0.3750000  -0.2500000), wk =   0.0078125
        k(  217) = (  -0.2500000  -0.2500000   0.0000000), wk =   0.0078125
        k(  218) = (  -0.2500000  -0.2500000   0.2500000), wk =   0.0078125
        k(  219) = (  -0.2500000  -0.2500000  -0.5000000), wk =   0.0078125
        k(  220) = (  -0.2500000  -0.2500000  -0.2500000), wk =   0.0078125
        k(  221) = (  -0.2500000  -0.1250000   0.0000000), wk =   0.0078125
        k(  222) = (  -0.2500000  -0.1250000   0.2500000), wk =   0.0078125
        k(  223) = (  -0.2500000  -0.1250000  -0.5000000), wk =   0.0078125
        k(  224) = (  -0.2500000  -0.1250000  -0.2500000), wk =   0.0078125
        k(  225) = (  -0.1250000   0.0000000   0.0000000), wk =   0.0078125
        k(  226) = (  -0.1250000   0.0000000   0.2500000), wk =   0.0078125
        k(  227) = (  -0.1250000   0.0000000  -0.5000000), wk =   0.0078125
        k(  228) = (  -0.1250000   0.0000000  -0.2500000), wk =   0.0078125
        k(  229) = (  -0.1250000   0.1250000   0.0000000), wk =   0.0078125
        k(  230) = (  -0.1250000   0.1250000   0.2500000), wk =   0.0078125
        k(  231) = (  -0.1250000   0.1250000  -0.5000000), wk =   0.0078125
        k(  232) = (  -0.1250000   0.1250000  -0.2500000), wk =   0.0078125
        k(  233) = (  -0.1250000   0.2500000   0.0000000), wk =   0.0078125
        k(  234) = (  -0.1250000   0.2500000   0.2500000), wk =   0.0078125
        k(  235) = (  -0.1250000   0.2500000  -0.5000000), wk =   0.0078125
        k(  236) = (  -0.1250000   0.2500000  -0.2500000), wk =   0.0078125
        k(  237) = (  -0.1250000   0.3750000   0.0000000), wk =   0.0078125
        k(  238) = (  -0.1250000   0.3750000   0.2500000), wk =   0.0078125
        k(  239) = (  -0.1250000   0.3750000  -0.5000000), wk =   0.0078125
        k(  240) = (  -0.1250000   0.3750000  -0.2500000), wk =   0.0078125
        k(  241) = (  -0.1250000  -0.5000000   0.0000000), wk =   0.0078125
        k(  242) = (  -0.1250000  -0.5000000   0.2500000), wk =   0.0078125
        k(  243) = (  -0.1250000  -0.5000000  -0.5000000), wk =   0.0078125
        k(  244) = (  -0.1250000  -0.5000000  -0.2500000), wk =   0.0078125
        k(  245) = (  -0.1250000  -0.3750000   0.0000000), wk =   0.0078125
        k(  246) = (  -0.1250000  -0.3750000   0.2500000), wk =   0.0078125
        k(  247) = (  -0.1250000  -0.3750000  -0.5000000), wk =   0.0078125
        k(  248) = (  -0.1250000  -0.3750000  -0.2500000), wk =   0.0078125
        k(  249) = (  -0.1250000  -0.2500000   0.0000000), wk =   0.0078125
        k(  250) = (  -0.1250000  -0.2500000   0.2500000), wk =   0.0078125
        k(  251) = (  -0.1250000  -0.2500000  -0.5000000), wk =   0.0078125
        k(  252) = (  -0.1250000  -0.2500000  -0.2500000), wk =   0.0078125
        k(  253) = (  -0.1250000  -0.1250000   0.0000000), wk =   0.0078125
        k(  254) = (  -0.1250000  -0.1250000   0.2500000), wk =   0.0078125
        k(  255) = (  -0.1250000  -0.1250000  -0.5000000), wk =   0.0078125
        k(  256) = (  -0.1250000  -0.1250000  -0.2500000), wk =   0.0078125

     Dense  grid:   210123 G-vectors     FFT dimensions: (  54,  54, 160)

     Smooth grid:    74335 G-vectors     FFT dimensions: (  36,  40, 120)

     Dynamical RAM for                 wfc:      14.17 MB

     Dynamical RAM for     wfc (w. buffer):      14.17 MB

     Dynamical RAM for           str. fact:      12.82 MB

     Dynamical RAM for           local pot:       0.00 MB

     Dynamical RAM for          nlocal pot:      23.52 MB

     Dynamical RAM for                qrad:       9.37 MB

     Dynamical RAM for          rho,v,vnew:      20.30 MB

     Dynamical RAM for           G-vectors:      12.59 MB

     Dynamical RAM for          h,s,v(r/c):       1.83 MB

     Dynamical RAM for          <psi|beta>:       0.25 MB

     Dynamical RAM for                 psi:      28.34 MB

     Dynamical RAM for                hpsi:      28.34 MB

     Dynamical RAM for                spsi:      28.34 MB

     Dynamical RAM for      wfcinit/wfcrot:      28.57 MB

     Dynamical RAM for           addusdens:     679.72 MB

     Estimated static dynamical RAM per process >     126.61 MB

     Estimated max dynamical RAM per process >     806.33 MB

     Atomic positions and unit cell read from directory:
     ./out/ybco.save/


     The potential is recalculated from file :
     ./out/ybco.save/charge-density

     Starting wfcs are   78 randomized atomic wfcs +   22 random wfcs
     Checking if some PAW data can be deallocated... 

     Band Structure Calculation
     Davidson diagonalization with overlap

     Computing kpt #:     1  of   256
     total cpu time spent up to now is       93.0 secs

     Computing kpt #:     2  of   256
     total cpu time spent up to now is      185.9 secs

     Computing kpt #:     3  of   256
     c_bands:  1 eigenvalues not converged
     total cpu time spent up to now is      282.6 secs

     Computing kpt #:     4  of   256
     total cpu time spent up to now is      370.5 secs

     Computing kpt #:     5  of   256
     total cpu time spent up to now is      455.7 secs

     Computing kpt #:     6  of   256
     total cpu time spent up to now is      551.4 secs

     Computing kpt #:     7  of   256
     total cpu time spent up to now is      649.0 secs

     Computing kpt #:     8  of   256
     c_bands:  1 eigenvalues not converged
     total cpu time spent up to now is      763.0 secs

     Computing kpt #:     9  of   256
     total cpu time spent up to now is      863.7 secs

     Computing kpt #:    10  of   256
     total cpu time spent up to now is      964.3 secs

     Computing kpt #:    11  of   256
     total cpu time spent up to now is     1059.0 secs

     Computing kpt #:    12  of   256
     total cpu time spent up to now is     1156.9 secs

     Computing kpt #:    13  of   256
     total cpu time spent up to now is     1258.3 secs

     Computing kpt #:    14  of   256
     total cpu time spent up to now is     1358.7 secs

     Computing kpt #:    15  of   256
     total cpu time spent up to now is     1457.8 secs

     Computing kpt #:    16  of   256
     total cpu time spent up to now is     1550.0 secs

     Computing kpt #:    17  of   256
     total cpu time spent up to now is     1638.1 secs

     Computing kpt #:    18  of   256
     total cpu time spent up to now is     1727.5 secs

     Computing kpt #:    19  of   256
     total cpu time spent up to now is     1822.0 secs

     Computing kpt #:    20  of   256
     total cpu time spent up to now is     1912.5 secs

     Computing kpt #:    21  of   256
     total cpu time spent up to now is     2004.5 secs

     Computing kpt #:    22  of   256
     total cpu time spent up to now is     2099.7 secs

     Computing kpt #:    23  of   256
     total cpu time spent up to now is     2192.2 secs

     Computing kpt #:    24  of   256
     total cpu time spent up to now is     2295.1 secs

     Computing kpt #:    25  of   256
     total cpu time spent up to now is     2386.2 secs

     Computing kpt #:    26  of   256
     total cpu time spent up to now is     2489.4 secs

     Computing kpt #:    27  of   256
     total cpu time spent up to now is     2586.3 secs

     Computing kpt #:    28  of   256
     total cpu time spent up to now is     2692.0 secs

     Computing kpt #:    29  of   256
     total cpu time spent up to now is     2795.7 secs

     Computing kpt #:    30  of   256
     total cpu time spent up to now is     2906.3 secs

     Computing kpt #:    31  of   256
     total cpu time spent up to now is     3009.5 secs

     Computing kpt #:    32  of   256
     total cpu time spent up to now is     3118.5 secs

     Computing kpt #:    33  of   256
     total cpu time spent up to now is     3224.7 secs

     Computing kpt #:    34  of   256
     total cpu time spent up to now is     3335.5 secs

     Computing kpt #:    35  of   256
     total cpu time spent up to now is     3459.9 secs

     Computing kpt #:    36  of   256
     total cpu time spent up to now is     3568.8 secs

     Computing kpt #:    37  of   256
     total cpu time spent up to now is     3668.0 secs

     Computing kpt #:    38  of   256
     total cpu time spent up to now is     3770.1 secs

     Computing kpt #:    39  of   256
     total cpu time spent up to now is     3865.5 secs

     Computing kpt #:    40  of   256
     total cpu time spent up to now is     3957.6 secs

     Computing kpt #:    41  of   256
     total cpu time spent up to now is     4048.5 secs

     Computing kpt #:    42  of   256
     total cpu time spent up to now is     4140.0 secs

     Computing kpt #:    43  of   256
     total cpu time spent up to now is     4234.2 secs

     Computing kpt #:    44  of   256
     total cpu time spent up to now is     4322.6 secs

     Computing kpt #:    45  of   256
     total cpu time spent up to now is     4417.2 secs

     Computing kpt #:    46  of   256
     total cpu time spent up to now is     4513.0 secs

     Computing kpt #:    47  of   256
     total cpu time spent up to now is     4605.8 secs

     Computing kpt #:    48  of   256
     total cpu time spent up to now is     4700.9 secs

     Computing kpt #:    49  of   256
     total cpu time spent up to now is     4797.0 secs

     Computing kpt #:    50  of   256
     total cpu time spent up to now is     4899.1 secs

     Computing kpt #:    51  of   256
     total cpu time spent up to now is     4996.3 secs

     Computing kpt #:    52  of   256
     total cpu time spent up to now is     5101.7 secs

     Computing kpt #:    53  of   256
     total cpu time spent up to now is     5194.4 secs

     Computing kpt #:    54  of   256
     total cpu time spent up to now is     5288.2 secs

     Computing kpt #:    55  of   256
     total cpu time spent up to now is     5381.7 secs

     Computing kpt #:    56  of   256
     total cpu time spent up to now is     5471.5 secs

     Computing kpt #:    57  of   256
     total cpu time spent up to now is     5556.0 secs

     Computing kpt #:    58  of   256
     total cpu time spent up to now is     5646.1 secs

     Computing kpt #:    59  of   256
     total cpu time spent up to now is     5735.2 secs

     Computing kpt #:    60  of   256
     total cpu time spent up to now is     5825.2 secs

     Computing kpt #:    61  of   256
     total cpu time spent up to now is     5913.2 secs

     Computing kpt #:    62  of   256
     total cpu time spent up to now is     6004.7 secs

     Computing kpt #:    63  of   256
     total cpu time spent up to now is     6088.7 secs

     Computing kpt #:    64  of   256
     total cpu time spent up to now is     6175.1 secs

     Computing kpt #:    65  of   256
     c_bands:  1 eigenvalues not converged
     total cpu time spent up to now is     6278.6 secs

     Computing kpt #:    66  of   256
     c_bands:  1 eigenvalues not converged
     total cpu time spent up to now is     6384.2 secs

     Computing kpt #:    67  of   256
     total cpu time spent up to now is     6477.8 secs

     Computing kpt #:    68  of   256
     total cpu time spent up to now is     6570.9 secs

     Computing kpt #:    69  of   256
     total cpu time spent up to now is     6664.2 secs

     Computing kpt #:    70  of   256
     total cpu time spent up to now is     6756.8 secs

     Computing kpt #:    71  of   256
     total cpu time spent up to now is     6847.0 secs

     Computing kpt #:    72  of   256
     total cpu time spent up to now is     6939.4 secs

     Computing kpt #:    73  of   256
     total cpu time spent up to now is     7030.4 secs

     Computing kpt #:    74  of   256
     total cpu time spent up to now is     7123.7 secs

     Computing kpt #:    75  of   256
     total cpu time spent up to now is     7221.8 secs

     Computing kpt #:    76  of   256
     total cpu time spent up to now is     7313.0 secs

     Computing kpt #:    77  of   256
     total cpu time spent up to now is     7409.9 secs

     Computing kpt #:    78  of   256
     total cpu time spent up to now is     7505.4 secs

     Computing kpt #:    79  of   256
     total cpu time spent up to now is     7600.6 secs

     Computing kpt #:    80  of   256
     total cpu time spent up to now is     7698.3 secs

     Computing kpt #:    81  of   256
     total cpu time spent up to now is     7798.2 secs

     Computing kpt #:    82  of   256
     total cpu time spent up to now is     7897.1 secs

     Computing kpt #:    83  of   256
     total cpu time spent up to now is     7994.0 secs

     Computing kpt #:    84  of   256
     total cpu time spent up to now is     8088.0 secs

     Computing kpt #:    85  of   256
     total cpu time spent up to now is     8185.6 secs

     Computing kpt #:    86  of   256
     total cpu time spent up to now is     8282.9 secs

     Computing kpt #:    87  of   256
     total cpu time spent up to now is     8377.7 secs

     Computing kpt #:    88  of   256
     total cpu time spent up to now is     8476.2 secs

     Computing kpt #:    89  of   256
     total cpu time spent up to now is     8567.6 secs

     Computing kpt #:    90  of   256
     total cpu time spent up to now is     8657.1 secs

     Computing kpt #:    91  of   256
     total cpu time spent up to now is     8752.6 secs

     Computing kpt #:    92  of   256
     total cpu time spent up to now is     8844.8 secs

     Computing kpt #:    93  of   256
     total cpu time spent up to now is     8936.4 secs

     Computing kpt #:    94  of   256
     total cpu time spent up to now is     9027.6 secs

     Computing kpt #:    95  of   256
     total cpu time spent up to now is     9116.7 secs

     Computing kpt #:    96  of   256
     total cpu time spent up to now is     9206.1 secs

     Computing kpt #:    97  of   256
     total cpu time spent up to now is     9301.8 secs

     Computing kpt #:    98  of   256
     total cpu time spent up to now is     9398.9 secs

     Computing kpt #:    99  of   256
     total cpu time spent up to now is     9486.5 secs

     Computing kpt #:   100  of   256
     total cpu time spent up to now is     9577.4 secs

     Computing kpt #:   101  of   256
     total cpu time spent up to now is     9674.2 secs

     Computing kpt #:   102  of   256
     total cpu time spent up to now is     9772.3 secs

     Computing kpt #:   103  of   256
     total cpu time spent up to now is     9863.1 secs

     Computing kpt #:   104  of   256
     total cpu time spent up to now is     9958.0 secs

     Computing kpt #:   105  of   256
     total cpu time spent up to now is    10045.5 secs

     Computing kpt #:   106  of   256
     total cpu time spent up to now is    10134.7 secs

     Computing kpt #:   107  of   256
     total cpu time spent up to now is    10230.6 secs

     Computing kpt #:   108  of   256
     total cpu time spent up to now is    10319.3 secs

     Computing kpt #:   109  of   256
     total cpu time spent up to now is    10415.9 secs

     Computing kpt #:   110  of   256
     total cpu time spent up to now is    10512.9 secs

     Computing kpt #:   111  of   256
     total cpu time spent up to now is    10611.3 secs

     Computing kpt #:   112  of   256
     total cpu time spent up to now is    10708.4 secs

     Computing kpt #:   113  of   256
     total cpu time spent up to now is    10801.4 secs

     Computing kpt #:   114  of   256
     total cpu time spent up to now is    10897.3 secs

     Computing kpt #:   115  of   256
     total cpu time spent up to now is    10988.1 secs

     Computing kpt #:   116  of   256
     total cpu time spent up to now is    11085.9 secs

     Computing kpt #:   117  of   256
     total cpu time spent up to now is    11183.8 secs

     Computing kpt #:   118  of   256
     total cpu time spent up to now is    11281.2 secs

     Computing kpt #:   119  of   256
     total cpu time spent up to now is    11379.1 secs

     Computing kpt #:   120  of   256
     total cpu time spent up to now is    11477.9 secs

     Computing kpt #:   121  of   256
     total cpu time spent up to now is    11573.4 secs

     Computing kpt #:   122  of   256
     total cpu time spent up to now is    11673.7 secs

     Computing kpt #:   123  of   256
     total cpu time spent up to now is    11775.6 secs

     Computing kpt #:   124  of   256
     total cpu time spent up to now is    11874.9 secs

     Computing kpt #:   125  of   256
     total cpu time spent up to now is    11976.0 secs

     Computing kpt #:   126  of   256
     total cpu time spent up to now is    12076.0 secs

     Computing kpt #:   127  of   256
     total cpu time spent up to now is    12173.8 secs

     Computing kpt #:   128  of   256
     total cpu time spent up to now is    12269.2 secs

     Computing kpt #:   129  of   256
     total cpu time spent up to now is    12353.8 secs

     Computing kpt #:   130  of   256
     total cpu time spent up to now is    12443.2 secs

     Computing kpt #:   131  of   256
     total cpu time spent up to now is    12535.9 secs

     Computing kpt #:   132  of   256
     total cpu time spent up to now is    12621.6 secs

     Computing kpt #:   133  of   256
     total cpu time spent up to now is    12707.6 secs

     Computing kpt #:   134  of   256
     total cpu time spent up to now is    12801.0 secs

     Computing kpt #:   135  of   256
     total cpu time spent up to now is    12890.7 secs

     Computing kpt #:   136  of   256
     total cpu time spent up to now is    12979.2 secs

     Computing kpt #:   137  of   256
     total cpu time spent up to now is    13068.5 secs

     Computing kpt #:   138  of   256
     total cpu time spent up to now is    13159.7 secs

     Computing kpt #:   139  of   256
     total cpu time spent up to now is    13245.5 secs

     Computing kpt #:   140  of   256
     total cpu time spent up to now is    13334.1 secs

     Computing kpt #:   141  of   256
     total cpu time spent up to now is    13428.3 secs

     Computing kpt #:   142  of   256
     total cpu time spent up to now is    13522.0 secs

     Computing kpt #:   143  of   256
     total cpu time spent up to now is    13611.8 secs

     Computing kpt #:   144  of   256
     total cpu time spent up to now is    13707.2 secs

     Computing kpt #:   145  of   256
     total cpu time spent up to now is    13798.9 secs

     Computing kpt #:   146  of   256
     total cpu time spent up to now is    13893.5 secs

     Computing kpt #:   147  of   256
     total cpu time spent up to now is    13982.9 secs

     Computing kpt #:   148  of   256
     total cpu time spent up to now is    14082.2 secs

     Computing kpt #:   149  of   256
     total cpu time spent up to now is    14177.9 secs

     Computing kpt #:   150  of   256
     total cpu time spent up to now is    14274.6 secs

     Computing kpt #:   151  of   256
     total cpu time spent up to now is    14363.8 secs

     Computing kpt #:   152  of   256
     total cpu time spent up to now is    14457.5 secs

     Computing kpt #:   153  of   256
     total cpu time spent up to now is    14547.1 secs

     Computing kpt #:   154  of   256
     total cpu time spent up to now is    14640.2 secs

     Computing kpt #:   155  of   256
     total cpu time spent up to now is    14729.1 secs

     Computing kpt #:   156  of   256
     total cpu time spent up to now is    14824.6 secs

     Computing kpt #:   157  of   256
     total cpu time spent up to now is    14911.2 secs

     Computing kpt #:   158  of   256
     total cpu time spent up to now is    15002.2 secs

     Computing kpt #:   159  of   256
     total cpu time spent up to now is    15092.2 secs

     Computing kpt #:   160  of   256
     total cpu time spent up to now is    15186.0 secs

     Computing kpt #:   161  of   256
     total cpu time spent up to now is    15279.0 secs

     Computing kpt #:   162  of   256
     total cpu time spent up to now is    15372.4 secs

     Computing kpt #:   163  of   256
     total cpu time spent up to now is    15462.5 secs

     Computing kpt #:   164  of   256
     total cpu time spent up to now is    15553.3 secs

     Computing kpt #:   165  of   256
     total cpu time spent up to now is    15645.2 secs

     Computing kpt #:   166  of   256
     total cpu time spent up to now is    15736.1 secs

     Computing kpt #:   167  of   256
     total cpu time spent up to now is    15823.5 secs

     Computing kpt #:   168  of   256
     total cpu time spent up to now is    15914.9 secs

     Computing kpt #:   169  of   256
     total cpu time spent up to now is    16006.2 secs

     Computing kpt #:   170  of   256
     total cpu time spent up to now is    16097.3 secs

     Computing kpt #:   171  of   256
     total cpu time spent up to now is    16193.9 secs

     Computing kpt #:   172  of   256
     total cpu time spent up to now is    16285.4 secs

     Computing kpt #:   173  of   256
     total cpu time spent up to now is    16386.2 secs

     Computing kpt #:   174  of   256
     total cpu time spent up to now is    16489.1 secs

     Computing kpt #:   175  of   256
     total cpu time spent up to now is    16588.4 secs

     Computing kpt #:   176  of   256
     total cpu time spent up to now is    16689.1 secs

     Computing kpt #:   177  of   256
     total cpu time spent up to now is    16785.2 secs

     Computing kpt #:   178  of   256
     total cpu time spent up to now is    16883.8 secs

     Computing kpt #:   179  of   256
     total cpu time spent up to now is    16979.0 secs

     Computing kpt #:   180  of   256
     total cpu time spent up to now is    17075.8 secs

     Computing kpt #:   181  of   256
     total cpu time spent up to now is    17176.7 secs

     Computing kpt #:   182  of   256
     total cpu time spent up to now is    17274.6 secs

     Computing kpt #:   183  of   256
     total cpu time spent up to now is    17373.3 secs

     Computing kpt #:   184  of   256
     total cpu time spent up to now is    17475.0 secs

     Computing kpt #:   185  of   256
     total cpu time spent up to now is    17567.5 secs

     Computing kpt #:   186  of   256
     total cpu time spent up to now is    17664.7 secs

     Computing kpt #:   187  of   256
     total cpu time spent up to now is    17761.8 secs

     Computing kpt #:   188  of   256
     total cpu time spent up to now is    17856.9 secs

     Computing kpt #:   189  of   256
     total cpu time spent up to now is    17951.0 secs

     Computing kpt #:   190  of   256
     total cpu time spent up to now is    18042.7 secs

     Computing kpt #:   191  of   256
     total cpu time spent up to now is    18129.3 secs

     Computing kpt #:   192  of   256
     total cpu time spent up to now is    18220.8 secs

     Computing kpt #:   193  of   256
     c_bands:  1 eigenvalues not converged
     total cpu time spent up to now is    18318.5 secs

     Computing kpt #:   194  of   256
     total cpu time spent up to now is    18411.6 secs

     Computing kpt #:   195  of   256
     total cpu time spent up to now is    18505.4 secs

     Computing kpt #:   196  of   256
     total cpu time spent up to now is    18598.9 secs

     Computing kpt #:   197  of   256
     total cpu time spent up to now is    18694.0 secs

     Computing kpt #:   198  of   256
     total cpu time spent up to now is    18785.9 secs

     Computing kpt #:   199  of   256
     total cpu time spent up to now is    18877.9 secs

     Computing kpt #:   200  of   256
     total cpu time spent up to now is    18969.1 secs

     Computing kpt #:   201  of   256
     total cpu time spent up to now is    19059.7 secs

     Computing kpt #:   202  of   256
     total cpu time spent up to now is    19151.5 secs

     Computing kpt #:   203  of   256
     total cpu time spent up to now is    19242.8 secs

     Computing kpt #:   204  of   256
     total cpu time spent up to now is    19338.2 secs

     Computing kpt #:   205  of   256
     total cpu time spent up to now is    19433.9 secs

     Computing kpt #:   206  of   256
     total cpu time spent up to now is    19531.0 secs

     Computing kpt #:   207  of   256
     total cpu time spent up to now is    19625.0 secs

     Computing kpt #:   208  of   256
     total cpu time spent up to now is    19722.5 secs

     Computing kpt #:   209  of   256
     total cpu time spent up to now is    19820.2 secs

     Computing kpt #:   210  of   256
     total cpu time spent up to now is    19913.3 secs

     Computing kpt #:   211  of   256
     total cpu time spent up to now is    20009.9 secs

     Computing kpt #:   212  of   256
     total cpu time spent up to now is    20103.3 secs

     Computing kpt #:   213  of   256
     total cpu time spent up to now is    20199.1 secs

     Computing kpt #:   214  of   256
     total cpu time spent up to now is    20292.4 secs

     Computing kpt #:   215  of   256
     total cpu time spent up to now is    20384.4 secs

     Computing kpt #:   216  of   256
     total cpu time spent up to now is    20479.5 secs

     Computing kpt #:   217  of   256
     total cpu time spent up to now is    20570.9 secs

     Computing kpt #:   218  of   256
     total cpu time spent up to now is    20664.2 secs

     Computing kpt #:   219  of   256
     total cpu time spent up to now is    20757.9 secs

     Computing kpt #:   220  of   256
     total cpu time spent up to now is    20851.1 secs

     Computing kpt #:   221  of   256
     total cpu time spent up to now is    20944.7 secs

     Computing kpt #:   222  of   256
     total cpu time spent up to now is    21038.8 secs

     Computing kpt #:   223  of   256
     total cpu time spent up to now is    21132.7 secs

     Computing kpt #:   224  of   256
     total cpu time spent up to now is    21226.4 secs

     Computing kpt #:   225  of   256
     total cpu time spent up to now is    21320.5 secs

     Computing kpt #:   226  of   256
     total cpu time spent up to now is    21415.3 secs

     Computing kpt #:   227  of   256
     total cpu time spent up to now is    21512.1 secs

     Computing kpt #:   228  of   256
     total cpu time spent up to now is    21608.9 secs

     Computing kpt #:   229  of   256
     total cpu time spent up to now is    21699.0 secs

     Computing kpt #:   230  of   256
     total cpu time spent up to now is    21797.1 secs

     Computing kpt #:   231  of   256
     total cpu time spent up to now is    21889.7 secs

     Computing kpt #:   232  of   256
     total cpu time spent up to now is    21982.1 secs

     Computing kpt #:   233  of   256
     total cpu time spent up to now is    22070.9 secs

     Computing kpt #:   234  of   256
     total cpu time spent up to now is    22164.6 secs

     Computing kpt #:   235  of   256
     total cpu time spent up to now is    22260.4 secs

     Computing kpt #:   236  of   256
     total cpu time spent up to now is    22355.0 secs

     Computing kpt #:   237  of   256
     total cpu time spent up to now is    22455.0 secs

     Computing kpt #:   238  of   256
     total cpu time spent up to now is    22552.2 secs

     Computing kpt #:   239  of   256
     total cpu time spent up to now is    22644.2 secs

     Computing kpt #:   240  of   256
     total cpu time spent up to now is    22738.6 secs

     Computing kpt #:   241  of   256
     total cpu time spent up to now is    22830.9 secs

     Computing kpt #:   242  of   256
     total cpu time spent up to now is    22930.4 secs

     Computing kpt #:   243  of   256
     total cpu time spent up to now is    23019.5 secs

     Computing kpt #:   244  of   256
     total cpu time spent up to now is    23115.0 secs

     Computing kpt #:   245  of   256
     total cpu time spent up to now is    23210.0 secs

     Computing kpt #:   246  of   256
     total cpu time spent up to now is    23304.8 secs

     Computing kpt #:   247  of   256
     total cpu time spent up to now is    23396.8 secs

     Computing kpt #:   248  of   256
     total cpu time spent up to now is    23490.6 secs

     Computing kpt #:   249  of   256
     total cpu time spent up to now is    23580.9 secs

     Computing kpt #:   250  of   256
     total cpu time spent up to now is    23674.2 secs

     Computing kpt #:   251  of   256
     total cpu time spent up to now is    23767.1 secs

     Computing kpt #:   252  of   256
     total cpu time spent up to now is    23856.8 secs

     Computing kpt #:   253  of   256
     total cpu time spent up to now is    23942.3 secs

     Computing kpt #:   254  of   256
     total cpu time spent up to now is    24030.1 secs

     Computing kpt #:   255  of   256
     total cpu time spent up to now is    24120.1 secs

     Computing kpt #:   256  of   256
     total cpu time spent up to now is    24214.1 secs

     ethr =  9.43E-12,  avg # of iterations = 65.0

     total cpu time spent up to now is    24214.1 secs

     End of band structure calculation

          k = 0.0000 0.0000 0.0000 (  9261 PWs)   bands (ev):

   -31.2144 -15.8664 -15.8410 -11.7297 -11.2203 -11.1988  -8.4965  -7.5521
    -7.4758  -7.3314  -7.0546  -6.5569  -6.4788  -1.1124  -1.0718  -0.8813
    -0.8540  -0.7308  -0.6826   4.9078   4.9233   4.9590   5.1291   5.1943
     5.2381   6.0749   6.2630   6.3628   6.4578   6.6723   6.9224   7.1041
     7.1390   7.1465   7.2022   7.2384   7.3033   7.4080   7.4825   7.5324
     7.7430   7.9598   8.0506   8.1720   8.1878   8.3267   8.3766   8.4164
     8.8569   8.8859   9.1316   9.2421   9.2894   9.4564   9.4614  12.3869
    13.1186  13.9591  14.0330  14.8010  15.0702  15.5350  15.8472  16.0762
    16.5473  16.7904  16.9520  17.3072  17.6043  17.8106  17.8723  18.2112
    18.4124  18.7451  19.0413  19.8960  21.0044  21.7227  21.7261  22.0190
    22.4423  22.6084  22.8967  24.1978  24.5024  24.6832  25.2208  25.2867
    25.5540  25.7689  25.9361  26.0133  26.8050  27.4054  27.8279  28.1096
    29.0740  29.1620  29.2731  29.3627

     occupation numbers 
     1.0000   1.0000   1.0000   1.0000   1.0000   1.0000   1.0000   1.0000
     1.0000   1.0000   1.0000   1.0000   1.0000   1.0000   1.0000   1.0000
     1.0000   1.0000   1.0000   1.0000   1.0000   1.0000   1.0000   1.0000
     1.0000   1.0000   1.0000   1.0000   1.0000   1.0000   1.0000   1.0000
     1.0000   1.0000   1.0000   1.0000   1.0000   1.0000   1.0000   1.0000
     1.0000   1.0000   1.0000   1.0000   1.0000   1.0000   1.0000   1.0000
     1.0000   1.0000   1.0000   1.0000   1.0000   0.9977   0.9973   0.0000
     0.0000   0.0000   0.0000   0.0000   0.0000   0.0000   0.0000   0.0000
     0.0000   0.0000   0.0000   0.0000   0.0000   0.0000   0.0000   0.0000
     0.0000   0.0000   0.0000   0.0000   0.0000   0.0000   0.0000   0.0000
     0.0000   0.0000   0.0000   0.0000   0.0000   0.0000   0.0000   0.0000
     0.0000   0.0000   0.0000   0.0000   0.0000   0.0000   0.0000   0.0000
     0.0000   0.0000   0.0000   0.0000

          k = 0.0000 0.0000 0.0813 (  9261 PWs)   bands (ev):

   -31.2144 -15.8670 -15.8405 -11.7298 -11.2203 -11.1988  -8.4948  -7.5604
    -7.4701  -7.3316  -7.0546  -6.5585  -6.4759  -1.1295  -1.0550  -0.8821
    -0.8533  -0.7315  -0.6818   4.9064   4.9217   4.9802   5.1114   5.1954
     5.2394   6.0729   6.2635   6.3461   6.4577   6.6722   6.9037   7.1042
     7.1389   7.1692   7.2070   7.2384   7.2880   7.4048   7.5152   7.5386
     7.7413   7.9911   8.0626   8.1273   8.1757   8.3305   8.4172   8.4266
     8.8492   8.8711   9.1201   9.2388   9.2453   9.4583   9.4640  12.5101
    13.0645  13.8734  14.1406  14.6445  15.0702  15.2947  15.9364  16.4042
    16.4361  16.9587  17.0341  17.2940  17.4933  17.8074  17.8757  18.1383
    18.4278  18.6176  19.2601  19.8932  21.0439  21.4418  21.9041  22.0793
    22.0968  22.5765  22.8305  24.2149  24.4980  24.6826  25.2285  25.3444
    25.4559  26.0173  26.1158  26.3607  26.5766  27.8030  28.0315  28.0779
    28.1246  29.2176  29.2399  29.2947

     occupation numbers 
     1.0000   1.0000   1.0000   1.0000   1.0000   1.0000   1.0000   1.0000
     1.0000   1.0000   1.0000   1.0000   1.0000   1.0000   1.0000   1.0000
     1.0000   1.0000   1.0000   1.0000   1.0000   1.0000   1.0000   1.0000
     1.0000   1.0000   1.0000   1.0000   1.0000   1.0000   1.0000   1.0000
     1.0000   1.0000   1.0000   1.0000   1.0000   1.0000   1.0000   1.0000
     1.0000   1.0000   1.0000   1.0000   1.0000   1.0000   1.0000   1.0000
     1.0000   1.0000   1.0000   1.0000   1.0000   0.9975   0.9970   0.0000
     0.0000   0.0000   0.0000   0.0000   0.0000   0.0000   0.0000   0.0000
     0.0000   0.0000   0.0000   0.0000   0.0000   0.0000   0.0000   0.0000
     0.0000   0.0000   0.0000   0.0000   0.0000   0.0000   0.0000   0.0000
     0.0000   0.0000   0.0000   0.0000   0.0000   0.0000   0.0000   0.0000
     0.0000   0.0000   0.0000   0.0000   0.0000   0.0000   0.0000   0.0000
     0.0000   0.0000   0.0000   0.0000

          k = 0.0000 0.0000-0.1626 (  9250 PWs)   bands (ev):

   -31.2144 -15.8675 -15.8399 -11.7299 -11.2203 -11.1988  -8.4930  -7.5677
    -7.4654  -7.3317  -7.0546  -6.5601  -6.4731  -1.1409  -1.0438  -0.8828
    -0.8526  -0.7323  -0.6810   4.9051   4.9201   5.0111   5.0840   5.1965
     5.2407   6.0709   6.2640   6.3298   6.4576   6.6720   6.8877   7.1043
     7.1388   7.1891   7.2123   7.2384   7.2758   7.4018   7.5446   7.5469
     7.7386   8.0000   8.0896   8.1006   8.1643   8.3343   8.4360   8.4507
     8.8423   8.8554   9.0930   9.2126   9.2356   9.4603   9.4666  12.7244
    12.9072  13.8132  14.3585  14.4157  15.0553  15.0702  16.2018  16.3707
    16.4896  17.0921  17.2132  17.2784  17.2876  17.8046  17.8787  18.0548
    18.4412  18.5979  19.4101  19.8817  21.0845  21.2518  21.7686  21.9955
    22.1914  22.5433  22.7471  24.2389  24.4938  24.6821  25.2335  25.2361
    25.3135  26.0212  26.3917  26.9594  27.3446  27.4848  27.7581  27.7792
    28.0488  28.5672  29.2700  29.3131

     occupation numbers 
     1.0000   1.0000   1.0000   1.0000   1.0000   1.0000   1.0000   1.0000
     1.0000   1.0000   1.0000   1.0000   1.0000   1.0000   1.0000   1.0000
     1.0000   1.0000   1.0000   1.0000   1.0000   1.0000   1.0000   1.0000
     1.0000   1.0000   1.0000   1.0000   1.0000   1.0000   1.0000   1.0000
     1.0000   1.0000   1.0000   1.0000   1.0000   1.0000   1.0000   1.0000
     1.0000   1.0000   1.0000   1.0000   1.0000   1.0000   1.0000   1.0000
     1.0000   1.0000   1.0000   1.0000   1.0000   0.9973   0.9968   0.0000
     0.0000   0.0000   0.0000   0.0000   0.0000   0.0000   0.0000   0.0000
     0.0000   0.0000   0.0000   0.0000   0.0000   0.0000   0.0000   0.0000
     0.0000   0.0000   0.0000   0.0000   0.0000   0.0000   0.0000   0.0000
     0.0000   0.0000   0.0000   0.0000   0.0000   0.0000   0.0000   0.0000
     0.0000   0.0000   0.0000   0.0000   0.0000   0.0000   0.0000   0.0000
     0.0000   0.0000   0.0000   0.0000

          k = 0.0000 0.0000-0.0813 (  9261 PWs)   bands (ev):

   -31.2144 -15.8670 -15.8405 -11.7298 -11.2203 -11.1988  -8.4948  -7.5604
    -7.4701  -7.3316  -7.0546  -6.5585  -6.4759  -1.1295  -1.0550  -0.8821
    -0.8533  -0.7315  -0.6818   4.9064   4.9217   4.9802   5.1114   5.1954
     5.2394   6.0729   6.2635   6.3461   6.4577   6.6722   6.9037   7.1042
     7.1389   7.1692   7.2070   7.2384   7.2880   7.4048   7.5152   7.5386
     7.7413   7.9911   8.0626   8.1273   8.1757   8.3305   8.4172   8.4266
     8.8492   8.8711   9.1201   9.2388   9.2453   9.4583   9.4640  12.5101
    13.0645  13.8734  14.1406  14.6445  15.0702  15.2947  15.9364  16.4042
    16.4361  16.9587  17.0341  17.2940  17.4933  17.8074  17.8757  18.1383
    18.4278  18.6176  19.2601  19.8932  21.0439  21.4418  21.9041  22.0793
    22.0968  22.5765  22.8305  24.2149  24.4980  24.6826  25.2285  25.3444
    25.4559  26.0173  26.1158  26.3607  26.5766  27.8030  28.0315  28.0779
    28.1246  29.2176  29.2399  29.2947

     occupation numbers 
     1.0000   1.0000   1.0000   1.0000   1.0000   1.0000   1.0000   1.0000
     1.0000   1.0000   1.0000   1.0000   1.0000   1.0000   1.0000   1.0000
     1.0000   1.0000   1.0000   1.0000   1.0000   1.0000   1.0000   1.0000
     1.0000   1.0000   1.0000   1.0000   1.0000   1.0000   1.0000   1.0000
     1.0000   1.0000   1.0000   1.0000   1.0000   1.0000   1.0000   1.0000
     1.0000   1.0000   1.0000   1.0000   1.0000   1.0000   1.0000   1.0000
     1.0000   1.0000   1.0000   1.0000   1.0000   0.9975   0.9970   0.0000
     0.0000   0.0000   0.0000   0.0000   0.0000   0.0000   0.0000   0.0000
     0.0000   0.0000   0.0000   0.0000   0.0000   0.0000   0.0000   0.0000
     0.0000   0.0000   0.0000   0.0000   0.0000   0.0000   0.0000   0.0000
     0.0000   0.0000   0.0000   0.0000   0.0000   0.0000   0.0000   0.0000
     0.0000   0.0000   0.0000   0.0000   0.0000   0.0000   0.0000   0.0000
     0.0000   0.0000   0.0000   0.0000

          k = 0.0000 0.1224 0.0000 (  9240 PWs)   bands (ev):

   -31.2127 -15.8503 -15.8253 -11.6989 -11.3133 -11.1964  -8.3859  -7.5770
    -7.4404  -7.3131  -7.0743  -6.6105  -6.5436  -1.1143  -1.0576  -0.8754
    -0.8366  -0.7014  -0.6522   4.8309   4.8356   4.9727   5.0997   5.2059
     5.2285   5.7421   6.1025   6.2020   6.3766   6.6230   6.8247   6.8429
     6.8717   6.9825   7.1302   7.1669   7.4880   7.5269   7.5869   7.5913
     7.9198   7.9325   7.9606   8.0905   8.1840   8.2841   8.4663   8.6349
     8.8232   8.9869   9.0819   9.2103   9.3644   9.5372   9.7538  12.7383
    13.2877  14.2696  14.2703  14.9323  15.0465  15.7740  16.0359  16.2005
    16.3329  16.6784  16.9630  17.3854  17.6287  18.0411  18.0482  18.1276
    18.4120  19.0120  19.1715  19.9336  20.7825  20.8785  22.0655  22.5096
    22.7270  22.9029  23.1354  24.0810  24.3264  24.3928  24.4563  25.1209
    25.7147  25.8759  25.8777  27.2533  27.2764  27.5262  27.7267  27.8435
    28.5539  28.8112  28.9300  29.1843

     occupation numbers 
     1.0000   1.0000   1.0000   1.0000   1.0000   1.0000   1.0000   1.0000
     1.0000   1.0000   1.0000   1.0000   1.0000   1.0000   1.0000   1.0000
     1.0000   1.0000   1.0000   1.0000   1.0000   1.0000   1.0000   1.0000
     1.0000   1.0000   1.0000   1.0000   1.0000   1.0000   1.0000   1.0000
     1.0000   1.0000   1.0000   1.0000   1.0000   1.0000   1.0000   1.0000
     1.0000   1.0000   1.0000   1.0000   1.0000   1.0000   1.0000   1.0000
     1.0000   1.0000   1.0000   1.0000   0.9999   0.9766   0.3960   0.0000
     0.0000   0.0000   0.0000   0.0000   0.0000   0.0000   0.0000   0.0000
     0.0000   0.0000   0.0000   0.0000   0.0000   0.0000   0.0000   0.0000
     0.0000   0.0000   0.0000   0.0000   0.0000   0.0000   0.0000   0.0000
     0.0000   0.0000   0.0000   0.0000   0.0000   0.0000   0.0000   0.0000
     0.0000   0.0000   0.0000   0.0000   0.0000   0.0000   0.0000   0.0000
     0.0000   0.0000   0.0000   0.0000

          k = 0.0000 0.1224 0.0813 (  9248 PWs)   bands (ev):

   -31.2127 -15.8508 -15.8247 -11.6990 -11.3133 -11.1964  -8.3842  -7.5805
    -7.4392  -7.3139  -7.0739  -6.6124  -6.5404  -1.1284  -1.0438  -0.8751
    -0.8369  -0.7021  -0.6514   4.8063   4.8870   4.9710   5.0714   5.2070
     5.2253   5.7400   6.0883   6.2316   6.3711   6.6225   6.7985   6.8318
     6.8884   6.9793   7.1304   7.1813   7.5004   7.5084   7.5738   7.6230
     7.9214   7.9379   7.9389   8.1501   8.1850   8.2611   8.4859   8.6744
     8.8060   8.9061   9.1104   9.1770   9.3672   9.5003   9.7885  12.8305
    13.2370  14.1881  14.3778  14.8525  15.0465  15.5122  15.9858  16.3553
    16.5896  16.7008  17.0459  17.4248  17.5097  18.0219  18.0339  18.1492
    18.4221  18.6576  19.4966  20.0152  20.8062  20.9831  21.9292  22.1535
    22.5572  22.8890  23.1787  24.0583  24.3493  24.3535  24.4810  25.3195
    25.7281  25.8794  26.4432  26.9208  27.1532  27.5371  27.8383  28.1098
    28.6317  28.7421  29.0454  29.2040

     occupation numbers 
     1.0000   1.0000   1.0000   1.0000   1.0000   1.0000   1.0000   1.0000
     1.0000   1.0000   1.0000   1.0000   1.0000   1.0000   1.0000   1.0000
     1.0000   1.0000   1.0000   1.0000   1.0000   1.0000   1.0000   1.0000
     1.0000   1.0000   1.0000   1.0000   1.0000   1.0000   1.0000   1.0000
     1.0000   1.0000   1.0000   1.0000   1.0000   1.0000   1.0000   1.0000
     1.0000   1.0000   1.0000   1.0000   1.0000   1.0000   1.0000   1.0000
     1.0000   1.0000   1.0000   1.0000   0.9999   0.9912   0.2664   0.0000
     0.0000   0.0000   0.0000   0.0000   0.0000   0.0000   0.0000   0.0000
     0.0000   0.0000   0.0000   0.0000   0.0000   0.0000   0.0000   0.0000
     0.0000   0.0000   0.0000   0.0000   0.0000   0.0000   0.0000   0.0000
     0.0000   0.0000   0.0000   0.0000   0.0000   0.0000   0.0000   0.0000
     0.0000   0.0000   0.0000   0.0000   0.0000   0.0000   0.0000   0.0000
     0.0000   0.0000   0.0000   0.0000

          k = 0.0000 0.1224-0.1626 (  9264 PWs)   bands (ev):

   -31.2127 -15.8513 -15.8242 -11.6992 -11.3133 -11.1964  -8.3825  -7.5839
    -7.4380  -7.3147  -7.0736  -6.6143  -6.5374  -1.1389  -1.0335  -0.8747
    -0.8372  -0.7029  -0.6506   4.7987   4.9380   4.9693   5.0261   5.2082
     5.2225   5.7382   6.0758   6.2590   6.3679   6.6221   6.7715   6.8250
     6.9013   6.9755   7.1306   7.1944   7.4965   7.5208   7.5529   7.6505
     7.9154   7.9225   7.9459   8.1859   8.1948   8.2615   8.5067   8.7373
     8.7870   8.8222   9.0447   9.2105   9.3699   9.4688   9.8139  12.9997
    13.1048  14.1261  14.5987  14.6619  15.0464  15.2775  16.1296  16.3172
    16.7034  16.8281  17.2383  17.2858  17.4607  17.9796  18.0297  18.1643
    18.4314  18.4992  19.6380  20.0990  20.8300  21.2146  21.6644  21.8100
    22.4398  22.8749  23.2127  24.0977  24.3192  24.3427  24.4934  25.3855
    25.6973  26.2098  26.4672  26.8434  27.4554  27.8219  27.8416  28.0093
    28.5066  28.8103  28.8126  29.0658

     occupation numbers 
     1.0000   1.0000   1.0000   1.0000   1.0000   1.0000   1.0000   1.0000
     1.0000   1.0000   1.0000   1.0000   1.0000   1.0000   1.0000   1.0000
     1.0000   1.0000   1.0000   1.0000   1.0000   1.0000   1.0000   1.0000
     1.0000   1.0000   1.0000   1.0000   1.0000   1.0000   1.0000   1.0000
     1.0000   1.0000   1.0000   1.0000   1.0000   1.0000   1.0000   1.0000
     1.0000   1.0000   1.0000   1.0000   1.0000   1.0000   1.0000   1.0000
     1.0000   1.0000   1.0000   1.0000   0.9999   0.9965   0.1874   0.0000
     0.0000   0.0000   0.0000   0.0000   0.0000   0.0000   0.0000   0.0000
     0.0000   0.0000   0.0000   0.0000   0.0000   0.0000   0.0000   0.0000
     0.0000   0.0000   0.0000   0.0000   0.0000   0.0000   0.0000   0.0000
     0.0000   0.0000   0.0000   0.0000   0.0000   0.0000   0.0000   0.0000
     0.0000   0.0000   0.0000   0.0000   0.0000   0.0000   0.0000   0.0000
     0.0000   0.0000   0.0000   0.0000

          k = 0.0000 0.1224-0.0813 (  9248 PWs)   bands (ev):

   -31.2127 -15.8508 -15.8247 -11.6990 -11.3133 -11.1964  -8.3842  -7.5805
    -7.4392  -7.3139  -7.0739  -6.6124  -6.5404  -1.1284  -1.0438  -0.8751
    -0.8369  -0.7021  -0.6514   4.8063   4.8870   4.9710   5.0714   5.2070
     5.2253   5.7400   6.0883   6.2316   6.3711   6.6225   6.7985   6.8318
     6.8884   6.9793   7.1304   7.1813   7.5004   7.5084   7.5738   7.6230
     7.9214   7.9379   7.9389   8.1501   8.1850   8.2611   8.4859   8.6744
     8.8060   8.9061   9.1104   9.1770   9.3672   9.5003   9.7885  12.8305
    13.2370  14.1881  14.3778  14.8525  15.0465  15.5122  15.9858  16.3553
    16.5896  16.7008  17.0459  17.4248  17.5097  18.0219  18.0339  18.1492
    18.4221  18.6576  19.4966  20.0152  20.8062  20.9831  21.9292  22.1535
    22.5572  22.8890  23.1787  24.0583  24.3493  24.3535  24.4810  25.3195
    25.7281  25.8794  26.4432  26.9208  27.1532  27.5371  27.8383  28.1098
    28.6317  28.7421  29.0454  29.2040

     occupation numbers 
     1.0000   1.0000   1.0000   1.0000   1.0000   1.0000   1.0000   1.0000
     1.0000   1.0000   1.0000   1.0000   1.0000   1.0000   1.0000   1.0000
     1.0000   1.0000   1.0000   1.0000   1.0000   1.0000   1.0000   1.0000
     1.0000   1.0000   1.0000   1.0000   1.0000   1.0000   1.0000   1.0000
     1.0000   1.0000   1.0000   1.0000   1.0000   1.0000   1.0000   1.0000
     1.0000   1.0000   1.0000   1.0000   1.0000   1.0000   1.0000   1.0000
     1.0000   1.0000   1.0000   1.0000   0.9999   0.9912   0.2664   0.0000
     0.0000   0.0000   0.0000   0.0000   0.0000   0.0000   0.0000   0.0000
     0.0000   0.0000   0.0000   0.0000   0.0000   0.0000   0.0000   0.0000
     0.0000   0.0000   0.0000   0.0000   0.0000   0.0000   0.0000   0.0000
     0.0000   0.0000   0.0000   0.0000   0.0000   0.0000   0.0000   0.0000
     0.0000   0.0000   0.0000   0.0000   0.0000   0.0000   0.0000   0.0000
     0.0000   0.0000   0.0000   0.0000

          k = 0.0000 0.2448 0.0000 (  9272 PWs)   bands (ev):

   -31.2087 -15.8108 -15.7867 -11.6214 -11.5149 -11.1906  -8.1276  -7.6710
    -7.3634  -7.2707  -7.0910  -6.7368  -6.7004  -1.1057  -1.0223  -0.8617
    -0.8038  -0.6284  -0.5766   4.4547   4.6110   4.8267   5.1014   5.1171
     5.2435   5.3836   5.7820   6.0543   6.3492   6.4298   6.5047   6.5132
     6.6688   6.7462   7.1325   7.1346   7.2268   7.2622   7.5042   7.6998
     7.7921   8.1641   8.1867   8.2311   8.3687   8.4003   8.5798   8.7166
     8.8072   9.0382   9.0524   9.1635   9.2459   9.6768  10.6046  13.5898
    13.6612  14.8645  14.9920  15.0763  15.1448  16.0631  16.2009  16.4599
    16.5648  16.6932  17.0472  17.3564  17.7810  17.9144  18.3369  18.4554
    18.7189  19.4100  19.6287  19.8578  20.1586  20.6089  21.8997  22.8838
    22.9628  23.6754  23.7554  23.9164  23.9195  24.0734  24.3034  25.7956
    25.8387  26.0143  26.0955  26.9479  27.0690  27.5094  27.5234  27.5948
    27.9238  28.0434  28.5204  29.2698

     occupation numbers 
     1.0000   1.0000   1.0000   1.0000   1.0000   1.0000   1.0000   1.0000
     1.0000   1.0000   1.0000   1.0000   1.0000   1.0000   1.0000   1.0000
     1.0000   1.0000   1.0000   1.0000   1.0000   1.0000   1.0000   1.0000
     1.0000   1.0000   1.0000   1.0000   1.0000   1.0000   1.0000   1.0000
     1.0000   1.0000   1.0000   1.0000   1.0000   1.0000   1.0000   1.0000
     1.0000   1.0000   1.0000   1.0000   1.0000   1.0000   1.0000   1.0000
     1.0000   1.0000   1.0000   1.0000   1.0000   0.7043   0.0000   0.0000
     0.0000   0.0000   0.0000   0.0000   0.0000   0.0000   0.0000   0.0000
     0.0000   0.0000   0.0000   0.0000   0.0000   0.0000   0.0000   0.0000
     0.0000   0.0000   0.0000   0.0000   0.0000   0.0000   0.0000   0.0000
     0.0000   0.0000   0.0000   0.0000   0.0000   0.0000   0.0000   0.0000
     0.0000   0.0000   0.0000   0.0000   0.0000   0.0000   0.0000   0.0000
     0.0000   0.0000   0.0000   0.0000

          k = 0.0000 0.2448 0.0813 (  9271 PWs)   bands (ev):

   -31.2087 -15.8112 -15.7863 -11.6215 -11.5149 -11.1906  -8.1261  -7.6724
    -7.3563  -7.2812  -7.0890  -6.7378  -6.6979  -1.1150  -1.0128  -0.8596
    -0.8059  -0.6291  -0.5758   4.4799   4.5916   4.8252   5.0992   5.1147
     5.2447   5.3337   5.8515   6.0591   6.3544   6.4294   6.4842   6.5472
     6.6581   6.6909   7.0991   7.1400   7.2413   7.2748   7.4981   7.7189
     7.8099   8.0890   8.2128   8.3414   8.4020   8.4211   8.5571   8.6859
     8.8066   8.9641   9.0137   9.1669   9.3202   9.6049  10.6370  13.6053
    13.6568  14.9240  14.9919  15.0192  15.2560  15.7257  16.1619  16.3053
    16.7831  16.9597  17.1337  17.3602  17.6361  18.0366  18.3815  18.4639
    18.7154  18.8869  19.7996  20.1700  20.2489  20.5734  22.0143  22.2842
    22.7967  23.6259  23.7224  23.8095  23.9989  24.2662  24.4972  25.6920
    25.8856  26.0855  26.4959  26.8846  26.9430  27.1232  27.5971  27.9527
    28.1506  28.3636  28.6341  29.2610

     occupation numbers 
     1.0000   1.0000   1.0000   1.0000   1.0000   1.0000   1.0000   1.0000
     1.0000   1.0000   1.0000   1.0000   1.0000   1.0000   1.0000   1.0000
     1.0000   1.0000   1.0000   1.0000   1.0000   1.0000   1.0000   1.0000
     1.0000   1.0000   1.0000   1.0000   1.0000   1.0000   1.0000   1.0000
     1.0000   1.0000   1.0000   1.0000   1.0000   1.0000   1.0000   1.0000
     1.0000   1.0000   1.0000   1.0000   1.0000   1.0000   1.0000   1.0000
     1.0000   1.0000   1.0000   1.0000   1.0000   0.9006   0.0000   0.0000
     0.0000   0.0000   0.0000   0.0000   0.0000   0.0000   0.0000   0.0000
     0.0000   0.0000   0.0000   0.0000   0.0000   0.0000   0.0000   0.0000
     0.0000   0.0000   0.0000   0.0000   0.0000   0.0000   0.0000   0.0000
     0.0000   0.0000   0.0000   0.0000   0.0000   0.0000   0.0000   0.0000
     0.0000   0.0000   0.0000   0.0000   0.0000   0.0000   0.0000   0.0000
     0.0000   0.0000   0.0000   0.0000

          k = 0.0000 0.2448-0.1626 (  9276 PWs)   bands (ev):

   -31.2087 -15.8116 -15.7858 -11.6216 -11.5149 -11.1906  -8.1245  -7.6738
    -7.3470  -7.2939  -7.0872  -6.7387  -6.6955  -1.1229  -1.0048  -0.8574
    -0.8082  -0.6299  -0.5750   4.5366   4.5405   4.8235   5.0972   5.1124
     5.2458   5.2949   5.8937   6.0917   6.3592   6.4291   6.4764   6.5732
     6.6241   6.6426   7.0813   7.1354   7.2650   7.2733   7.4926   7.7401
     7.8267   8.0364   8.2572   8.4139   8.4462   8.4902   8.5009   8.6451
     8.8064   8.8734   8.9806   9.1701   9.4430   9.4776  10.6663  13.6286
    13.6445  14.9135  14.9917  15.1680  15.3156  15.4237  16.0668  16.2366
    17.0062  17.1083  17.3282  17.3484  17.3750  18.3695  18.3828  18.4076
    18.4798  18.7113  19.8093  20.1813  20.3998  20.9799  21.5031  22.1656
    22.5840  23.6605  23.7006  23.9182  24.1038  24.1927  24.5150  25.6215
    25.9054  26.2348  26.5182  26.9123  27.0154  27.1827  27.5993  27.9657
    28.4990  28.7811  28.9780  29.2356

     occupation numbers 
     1.0000   1.0000   1.0000   1.0000   1.0000   1.0000   1.0000   1.0000
     1.0000   1.0000   1.0000   1.0000   1.0000   1.0000   1.0000   1.0000
     1.0000   1.0000   1.0000   1.0000   1.0000   1.0000   1.0000   1.0000
     1.0000   1.0000   1.0000   1.0000   1.0000   1.0000   1.0000   1.0000
     1.0000   1.0000   1.0000   1.0000   1.0000   1.0000   1.0000   1.0000
     1.0000   1.0000   1.0000   1.0000   1.0000   1.0000   1.0000   1.0000
     1.0000   1.0000   1.0000   1.0000   0.9985   0.9954   0.0000   0.0000
     0.0000   0.0000   0.0000   0.0000   0.0000   0.0000   0.0000   0.0000
     0.0000   0.0000   0.0000   0.0000   0.0000   0.0000   0.0000   0.0000
     0.0000   0.0000   0.0000   0.0000   0.0000   0.0000   0.0000   0.0000
     0.0000   0.0000   0.0000   0.0000   0.0000   0.0000   0.0000   0.0000
     0.0000   0.0000   0.0000   0.0000   0.0000   0.0000   0.0000   0.0000
     0.0000   0.0000   0.0000   0.0000

          k = 0.0000 0.2448-0.0813 (  9271 PWs)   bands (ev):

   -31.2087 -15.8112 -15.7863 -11.6215 -11.5149 -11.1906  -8.1261  -7.6724
    -7.3563  -7.2812  -7.0890  -6.7378  -6.6979  -1.1150  -1.0128  -0.8596
    -0.8059  -0.6291  -0.5758   4.4799   4.5916   4.8252   5.0992   5.1147
     5.2447   5.3337   5.8515   6.0591   6.3544   6.4294   6.4842   6.5472
     6.6581   6.6909   7.0991   7.1400   7.2413   7.2748   7.4981   7.7189
     7.8099   8.0890   8.2128   8.3414   8.4020   8.4211   8.5571   8.6859
     8.8066   8.9641   9.0137   9.1669   9.3202   9.6049  10.6370  13.6053
    13.6568  14.9240  14.9919  15.0192  15.2560  15.7257  16.1619  16.3053
    16.7831  16.9597  17.1337  17.3602  17.6361  18.0366  18.3815  18.4639
    18.7154  18.8869  19.7996  20.1700  20.2489  20.5734  22.0143  22.2842
    22.7967  23.6259  23.7224  23.8095  23.9989  24.2662  24.4972  25.6920
    25.8856  26.0855  26.4959  26.8846  26.9430  27.1232  27.5971  27.9527
    28.1506  28.3636  28.6341  29.2610

     occupation numbers 
     1.0000   1.0000   1.0000   1.0000   1.0000   1.0000   1.0000   1.0000
     1.0000   1.0000   1.0000   1.0000   1.0000   1.0000   1.0000   1.0000
     1.0000   1.0000   1.0000   1.0000   1.0000   1.0000   1.0000   1.0000
     1.0000   1.0000   1.0000   1.0000   1.0000   1.0000   1.0000   1.0000
     1.0000   1.0000   1.0000   1.0000   1.0000   1.0000   1.0000   1.0000
     1.0000   1.0000   1.0000   1.0000   1.0000   1.0000   1.0000   1.0000
     1.0000   1.0000   1.0000   1.0000   1.0000   0.9006   0.0000   0.0000
     0.0000   0.0000   0.0000   0.0000   0.0000   0.0000   0.0000   0.0000
     0.0000   0.0000   0.0000   0.0000   0.0000   0.0000   0.0000   0.0000
     0.0000   0.0000   0.0000   0.0000   0.0000   0.0000   0.0000   0.0000
     0.0000   0.0000   0.0000   0.0000   0.0000   0.0000   0.0000   0.0000
     0.0000   0.0000   0.0000   0.0000   0.0000   0.0000   0.0000   0.0000
     0.0000   0.0000   0.0000   0.0000

          k = 0.0000 0.3672 0.0000 (  9296 PWs)   bands (ev):

   -31.2046 -15.7704 -15.7474 -11.6929 -11.5386 -11.1848  -7.8540  -7.8016
    -7.3650  -7.1695  -7.0751  -6.8717  -6.8601  -1.0790  -0.9857  -0.8492
    -0.7832  -0.5523  -0.4977   4.0706   4.2960   4.3454   5.0201   5.3033
     5.3420   5.4506   5.4792   6.0551   6.0690   6.2123   6.3121   6.3546
     6.4449   6.6912   6.7855   6.9208   7.1655   7.2959   7.3165   7.7631
     7.8697   8.1042   8.2488   8.3014   8.3427   8.6403   8.8067   8.8419
     8.9913   9.0005   9.0697   9.0850   9.3443   9.6595  11.2094  14.0276
    14.5338  14.9410  15.0429  15.6868  15.8747  15.9635  16.0521  16.7625
    16.9945  17.1774  17.3929  17.5226  17.9369  18.0412  18.3291  18.6738
    19.1105  19.5225  19.6041  20.1756  20.3435  20.8936  21.3355  22.4544
    23.1622  23.2127  23.6667  24.1811  24.2116  24.5730  25.3102  25.3888
    25.5188  25.9211  26.1915  26.3404  26.8572  26.9124  27.0670  27.3471
    27.4156  27.6587  28.3787  28.5679

     occupation numbers 
     1.0000   1.0000   1.0000   1.0000   1.0000   1.0000   1.0000   1.0000
     1.0000   1.0000   1.0000   1.0000   1.0000   1.0000   1.0000   1.0000
     1.0000   1.0000   1.0000   1.0000   1.0000   1.0000   1.0000   1.0000
     1.0000   1.0000   1.0000   1.0000   1.0000   1.0000   1.0000   1.0000
     1.0000   1.0000   1.0000   1.0000   1.0000   1.0000   1.0000   1.0000
     1.0000   1.0000   1.0000   1.0000   1.0000   1.0000   1.0000   1.0000
     1.0000   1.0000   1.0000   1.0000   1.0000   0.7634   0.0000   0.0000
     0.0000   0.0000   0.0000   0.0000   0.0000   0.0000   0.0000   0.0000
     0.0000   0.0000   0.0000   0.0000   0.0000   0.0000   0.0000   0.0000
     0.0000   0.0000   0.0000   0.0000   0.0000   0.0000   0.0000   0.0000
     0.0000   0.0000   0.0000   0.0000   0.0000   0.0000   0.0000   0.0000
     0.0000   0.0000   0.0000   0.0000   0.0000   0.0000   0.0000   0.0000
     0.0000   0.0000   0.0000   0.0000

          k = 0.0000 0.3672 0.0813 (  9279 PWs)   bands (ev):

   -31.2046 -15.7708 -15.7470 -11.6928 -11.5386 -11.1848  -7.8522  -7.8038
    -7.3496  -7.1938  -7.0723  -6.8734  -6.8517  -1.0876  -0.9769  -0.8474
    -0.7852  -0.5531  -0.4969   4.0942   4.2531   4.3661   5.0197   5.2867
     5.3038   5.3384   5.6984   6.0508   6.0522   6.2297   6.3290   6.3563
     6.4323   6.5924   6.7964   6.9035   7.1496   7.2963   7.3347   7.7639
     7.9476   8.1408   8.2041   8.3549   8.3678   8.6386   8.7959   8.8244
     8.9248   9.0034   9.0678   9.0812   9.3746   9.5890  11.2445  14.1004
    14.4636  14.9410  15.0692  15.5826  15.8044  15.9560  16.2173  16.6799
    16.9893  17.2438  17.2691  17.6394  17.8342  18.2296  18.4101  18.7041
    19.1085  19.4941  19.5314  20.1557  20.4905  20.5430  21.9155  22.0854
    22.8992  23.1367  23.5674  23.6911  24.5259  24.9057  25.3095  25.4150
    25.6096  26.0736  26.3449  26.5456  26.6846  26.8397  26.9740  27.2575
    27.7415  27.8199  28.2713  28.5980

     occupation numbers 
     1.0000   1.0000   1.0000   1.0000   1.0000   1.0000   1.0000   1.0000
     1.0000   1.0000   1.0000   1.0000   1.0000   1.0000   1.0000   1.0000
     1.0000   1.0000   1.0000   1.0000   1.0000   1.0000   1.0000   1.0000
     1.0000   1.0000   1.0000   1.0000   1.0000   1.0000   1.0000   1.0000
     1.0000   1.0000   1.0000   1.0000   1.0000   1.0000   1.0000   1.0000
     1.0000   1.0000   1.0000   1.0000   1.0000   1.0000   1.0000   1.0000
     1.0000   1.0000   1.0000   1.0000   0.9999   0.9264   0.0000   0.0000
     0.0000   0.0000   0.0000   0.0000   0.0000   0.0000   0.0000   0.0000
     0.0000   0.0000   0.0000   0.0000   0.0000   0.0000   0.0000   0.0000
     0.0000   0.0000   0.0000   0.0000   0.0000   0.0000   0.0000   0.0000
     0.0000   0.0000   0.0000   0.0000   0.0000   0.0000   0.0000   0.0000
     0.0000   0.0000   0.0000   0.0000   0.0000   0.0000   0.0000   0.0000
     0.0000   0.0000   0.0000   0.0000

          k = 0.0000 0.3672-0.1626 (  9272 PWs)   bands (ev):

   -31.2046 -15.7712 -15.7466 -11.6929 -11.5387 -11.1848  -7.8503  -7.8061
    -7.3296  -7.2207  -7.0717  -6.8724  -6.8459  -1.0950  -0.9692  -0.8454
    -0.7873  -0.5538  -0.4961   4.1328   4.2042   4.3775   5.0193   5.2223
     5.3045   5.3348   5.8264   6.0494   6.0498   6.2480   6.3439   6.3601
     6.4162   6.4756   6.8062   6.8864   7.1362   7.2967   7.3500   7.7648
     8.0585   8.1189   8.1796   8.3891   8.4494   8.6328   8.7842   8.7878
     8.8461   9.0067   9.0637   9.0771   9.4495   9.4786  11.2776  14.2721
    14.2913  14.9410  15.1115  15.4387  15.8640  16.0071  16.1742  16.6385
    16.9906  17.1752  17.5108  17.5200  17.7551  18.4470  18.4757  18.7354
    19.1065  19.3327  19.5405  20.1256  20.3599  20.9212  21.4236  22.5459
    22.6011  22.8758  23.5564  23.7181  24.4766  24.8915  25.3088  25.4348
    25.8855  26.0891  26.3526  26.5637  26.6879  26.9055  27.0888  27.4618
    27.8100  27.8756  28.5066  28.5579

     occupation numbers 
     1.0000   1.0000   1.0000   1.0000   1.0000   1.0000   1.0000   1.0000
     1.0000   1.0000   1.0000   1.0000   1.0000   1.0000   1.0000   1.0000
     1.0000   1.0000   1.0000   1.0000   1.0000   1.0000   1.0000   1.0000
     1.0000   1.0000   1.0000   1.0000   1.0000   1.0000   1.0000   1.0000
     1.0000   1.0000   1.0000   1.0000   1.0000   1.0000   1.0000   1.0000
     1.0000   1.0000   1.0000   1.0000   1.0000   1.0000   1.0000   1.0000
     1.0000   1.0000   1.0000   1.0000   0.9981   0.9953   0.0000   0.0000
     0.0000   0.0000   0.0000   0.0000   0.0000   0.0000   0.0000   0.0000
     0.0000   0.0000   0.0000   0.0000   0.0000   0.0000   0.0000   0.0000
     0.0000   0.0000   0.0000   0.0000   0.0000   0.0000   0.0000   0.0000
     0.0000   0.0000   0.0000   0.0000   0.0000   0.0000   0.0000   0.0000
     0.0000   0.0000   0.0000   0.0000   0.0000   0.0000   0.0000   0.0000
     0.0000   0.0000   0.0000   0.0000

          k = 0.0000 0.3672-0.0813 (  9279 PWs)   bands (ev):

   -31.2046 -15.7708 -15.7470 -11.6928 -11.5386 -11.1848  -7.8522  -7.8038
    -7.3496  -7.1938  -7.0723  -6.8734  -6.8517  -1.0876  -0.9769  -0.8474
    -0.7852  -0.5531  -0.4969   4.0942   4.2531   4.3661   5.0197   5.2867
     5.3038   5.3384   5.6984   6.0508   6.0522   6.2297   6.3290   6.3563
     6.4323   6.5924   6.7964   6.9035   7.1496   7.2963   7.3347   7.7639
     7.9476   8.1408   8.2041   8.3549   8.3678   8.6386   8.7959   8.8244
     8.9248   9.0034   9.0678   9.0812   9.3746   9.5890  11.2445  14.1004
    14.4636  14.9410  15.0692  15.5826  15.8044  15.9560  16.2173  16.6799
    16.9893  17.2438  17.2691  17.6394  17.8342  18.2296  18.4101  18.7041
    19.1085  19.4941  19.5314  20.1557  20.4905  20.5430  21.9155  22.0854
    22.8992  23.1367  23.5674  23.6911  24.5259  24.9057  25.3095  25.4150
    25.6096  26.0736  26.3449  26.5456  26.6846  26.8397  26.9740  27.2575
    27.7415  27.8199  28.2713  28.5980

     occupation numbers 
     1.0000   1.0000   1.0000   1.0000   1.0000   1.0000   1.0000   1.0000
     1.0000   1.0000   1.0000   1.0000   1.0000   1.0000   1.0000   1.0000
     1.0000   1.0000   1.0000   1.0000   1.0000   1.0000   1.0000   1.0000
     1.0000   1.0000   1.0000   1.0000   1.0000   1.0000   1.0000   1.0000
     1.0000   1.0000   1.0000   1.0000   1.0000   1.0000   1.0000   1.0000
     1.0000   1.0000   1.0000   1.0000   1.0000   1.0000   1.0000   1.0000
     1.0000   1.0000   1.0000   1.0000   0.9999   0.9264   0.0000   0.0000
     0.0000   0.0000   0.0000   0.0000   0.0000   0.0000   0.0000   0.0000
     0.0000   0.0000   0.0000   0.0000   0.0000   0.0000   0.0000   0.0000
     0.0000   0.0000   0.0000   0.0000   0.0000   0.0000   0.0000   0.0000
     0.0000   0.0000   0.0000   0.0000   0.0000   0.0000   0.0000   0.0000
     0.0000   0.0000   0.0000   0.0000   0.0000   0.0000   0.0000   0.0000
     0.0000   0.0000   0.0000   0.0000

          k = 0.0000-0.4896 0.0000 (  9330 PWs)   bands (ev):

   -31.2029 -15.7534 -15.7309 -11.7613 -11.5025 -11.1824  -7.8630  -7.7109
    -7.4163  -7.0624  -7.0550  -6.9981  -6.9104  -1.0622  -0.9704  -0.8446
    -0.7789  -0.5198  -0.4639   3.8940   4.1263   4.2299   5.0005   5.3284
     5.3402   5.4854   5.5490   5.7944   6.0911   6.1743   6.2866   6.2939
     6.3665   6.5505   6.6190   6.9064   7.1524   7.1947   7.3816   7.7740
     7.7747   8.2109   8.2579   8.3356   8.3716   8.6174   8.8453   8.9413
     8.9914   9.0294   9.0502   9.2130   9.4556   9.5416  11.4098  14.2512
    14.6599  14.9208  15.5365  15.6842  15.7392  16.0587  16.3658  16.7648
    17.0983  17.2426  17.4411  18.0314  18.1166  18.2885  18.3274  18.5467
    19.2235  19.3162  19.7344  20.9424  20.9848  21.2191  21.2217  21.9715
    22.1163  22.1562  23.6276  24.2339  24.2345  25.0182  25.1751  25.7136
    25.7408  26.0084  26.2271  26.5090  26.7901  26.8397  27.1632  27.2919
    27.3744  27.5561  27.6864  27.8823

     occupation numbers 
     1.0000   1.0000   1.0000   1.0000   1.0000   1.0000   1.0000   1.0000
     1.0000   1.0000   1.0000   1.0000   1.0000   1.0000   1.0000   1.0000
     1.0000   1.0000   1.0000   1.0000   1.0000   1.0000   1.0000   1.0000
     1.0000   1.0000   1.0000   1.0000   1.0000   1.0000   1.0000   1.0000
     1.0000   1.0000   1.0000   1.0000   1.0000   1.0000   1.0000   1.0000
     1.0000   1.0000   1.0000   1.0000   1.0000   1.0000   1.0000   1.0000
     1.0000   1.0000   1.0000   1.0000   0.9977   0.9740   0.0000   0.0000
     0.0000   0.0000   0.0000   0.0000   0.0000   0.0000   0.0000   0.0000
     0.0000   0.0000   0.0000   0.0000   0.0000   0.0000   0.0000   0.0000
     0.0000   0.0000   0.0000   0.0000   0.0000   0.0000   0.0000   0.0000
     0.0000   0.0000   0.0000   0.0000   0.0000   0.0000   0.0000   0.0000
     0.0000   0.0000   0.0000   0.0000   0.0000   0.0000   0.0000   0.0000
     0.0000   0.0000   0.0000   0.0000

          k = 0.0000-0.4896 0.0813 (  9294 PWs)   bands (ev):

   -31.2029 -15.7538 -15.7305 -11.7613 -11.5025 -11.1824  -7.8658  -7.7087
    -7.4027  -7.0815  -7.0814  -6.9812  -6.8948  -1.0722  -0.9601  -0.8439
    -0.7797  -0.5206  -0.4631   3.9095   4.1027   4.2383   5.0002   5.2071
     5.3400   5.5421   5.6738   5.7950   6.1115   6.1435   6.2861   6.3218
     6.3535   6.5122   6.5549   6.8734   7.1734   7.1957   7.3763   7.7711
     7.8524   8.2624   8.3141   8.3355   8.3393   8.6146   8.8483   8.9278
     8.9396   9.0307   9.0452   9.2087   9.4534   9.4828  11.4464  14.3556
    14.6643  14.9209  15.2672  15.6016  15.8495  16.1250  16.5460  16.6372
    17.1100  17.2168  17.3374  17.9500  18.1302  18.4065  18.5467  18.5735
    19.2209  19.3196  19.8898  20.5241  21.0725  21.1540  21.2181  21.9051
    22.0812  22.5287  23.1530  23.6559  24.7958  24.9008  25.1455  25.9587
    26.1595  26.1803  26.2042  26.5215  26.5306  26.8442  27.2337  27.3003
    27.4448  27.5277  27.7932  28.1139

     occupation numbers 
     1.0000   1.0000   1.0000   1.0000   1.0000   1.0000   1.0000   1.0000
     1.0000   1.0000   1.0000   1.0000   1.0000   1.0000   1.0000   1.0000
     1.0000   1.0000   1.0000   1.0000   1.0000   1.0000   1.0000   1.0000
     1.0000   1.0000   1.0000   1.0000   1.0000   1.0000   1.0000   1.0000
     1.0000   1.0000   1.0000   1.0000   1.0000   1.0000   1.0000   1.0000
     1.0000   1.0000   1.0000   1.0000   1.0000   1.0000   1.0000   1.0000
     1.0000   1.0000   1.0000   1.0000   0.9979   0.9947   0.0000   0.0000
     0.0000   0.0000   0.0000   0.0000   0.0000   0.0000   0.0000   0.0000
     0.0000   0.0000   0.0000   0.0000   0.0000   0.0000   0.0000   0.0000
     0.0000   0.0000   0.0000   0.0000   0.0000   0.0000   0.0000   0.0000
     0.0000   0.0000   0.0000   0.0000   0.0000   0.0000   0.0000   0.0000
     0.0000   0.0000   0.0000   0.0000   0.0000   0.0000   0.0000   0.0000
     0.0000   0.0000   0.0000   0.0000

          k = 0.0000-0.4896-0.1626 (  9284 PWs)   bands (ev):

   -31.2029 -15.7542 -15.7301 -11.7613 -11.5026 -11.1824  -7.8684  -7.7064
    -7.3877  -7.1063  -7.0956  -6.9691  -6.8823  -1.0807  -0.9514  -0.8432
    -0.7805  -0.5213  -0.4623   3.9287   4.0773   4.2448   4.9999   5.1443
     5.3399   5.5354   5.7955   5.8308   6.1196   6.1340   6.2855   6.3381
     6.3438   6.3835   6.5587   6.8437   7.1904   7.1968   7.3712   7.7676
     7.9377   8.2669   8.2952   8.3354   8.4617   8.6119   8.8149   8.8515
     8.9378   9.0310   9.0404   9.2044   9.4311   9.4512  11.4812  14.5279
    14.6688  14.9211  14.9756  15.5621  15.9235  16.2519  16.5362  16.5998
    16.9156  17.3017  17.5934  17.5987  18.1464  18.5467  18.6589  18.6712
    19.2184  19.3227  20.3004  20.3075  20.6251  21.1000  21.2667  21.8921
    22.0382  22.7560  22.8806  23.6874  24.7489  24.7915  24.9343  26.1464
    26.1842  26.1888  26.2836  26.5491  26.8490  26.9775  27.3481  27.4446
    27.6049  27.6768  27.9145  28.2774

     occupation numbers 
     1.0000   1.0000   1.0000   1.0000   1.0000   1.0000   1.0000   1.0000
     1.0000   1.0000   1.0000   1.0000   1.0000   1.0000   1.0000   1.0000
     1.0000   1.0000   1.0000   1.0000   1.0000   1.0000   1.0000   1.0000
     1.0000   1.0000   1.0000   1.0000   1.0000   1.0000   1.0000   1.0000
     1.0000   1.0000   1.0000   1.0000   1.0000   1.0000   1.0000   1.0000
     1.0000   1.0000   1.0000   1.0000   1.0000   1.0000   1.0000   1.0000
     1.0000   1.0000   1.0000   1.0000   0.9990   0.9980   0.0000   0.0000
     0.0000   0.0000   0.0000   0.0000   0.0000   0.0000   0.0000   0.0000
     0.0000   0.0000   0.0000   0.0000   0.0000   0.0000   0.0000   0.0000
     0.0000   0.0000   0.0000   0.0000   0.0000   0.0000   0.0000   0.0000
     0.0000   0.0000   0.0000   0.0000   0.0000   0.0000   0.0000   0.0000
     0.0000   0.0000   0.0000   0.0000   0.0000   0.0000   0.0000   0.0000
     0.0000   0.0000   0.0000   0.0000

          k = 0.0000-0.4896-0.0813 (  9294 PWs)   bands (ev):

   -31.2029 -15.7538 -15.7305 -11.7613 -11.5025 -11.1824  -7.8658  -7.7087
    -7.4027  -7.0815  -7.0814  -6.9812  -6.8948  -1.0722  -0.9601  -0.8439
    -0.7797  -0.5206  -0.4631   3.9095   4.1027   4.2383   5.0002   5.2071
     5.3400   5.5421   5.6738   5.7950   6.1115   6.1435   6.2861   6.3218
     6.3535   6.5122   6.5549   6.8734   7.1734   7.1957   7.3763   7.7711
     7.8524   8.2624   8.3141   8.3355   8.3393   8.6146   8.8483   8.9278
     8.9396   9.0307   9.0452   9.2087   9.4534   9.4828  11.4464  14.3556
    14.6643  14.9209  15.2672  15.6016  15.8495  16.1250  16.5460  16.6372
    17.1100  17.2168  17.3374  17.9500  18.1302  18.4065  18.5467  18.5735
    19.2209  19.3196  19.8898  20.5241  21.0725  21.1540  21.2181  21.9051
    22.0812  22.5287  23.1530  23.6559  24.7958  24.9008  25.1455  25.9587
    26.1595  26.1803  26.2042  26.5215  26.5306  26.8442  27.2337  27.3003
    27.4448  27.5277  27.7932  28.1139

     occupation numbers 
     1.0000   1.0000   1.0000   1.0000   1.0000   1.0000   1.0000   1.0000
     1.0000   1.0000   1.0000   1.0000   1.0000   1.0000   1.0000   1.0000
     1.0000   1.0000   1.0000   1.0000   1.0000   1.0000   1.0000   1.0000
     1.0000   1.0000   1.0000   1.0000   1.0000   1.0000   1.0000   1.0000
     1.0000   1.0000   1.0000   1.0000   1.0000   1.0000   1.0000   1.0000
     1.0000   1.0000   1.0000   1.0000   1.0000   1.0000   1.0000   1.0000
     1.0000   1.0000   1.0000   1.0000   0.9979   0.9947   0.0000   0.0000
     0.0000   0.0000   0.0000   0.0000   0.0000   0.0000   0.0000   0.0000
     0.0000   0.0000   0.0000   0.0000   0.0000   0.0000   0.0000   0.0000
     0.0000   0.0000   0.0000   0.0000   0.0000   0.0000   0.0000   0.0000
     0.0000   0.0000   0.0000   0.0000   0.0000   0.0000   0.0000   0.0000
     0.0000   0.0000   0.0000   0.0000   0.0000   0.0000   0.0000   0.0000
     0.0000   0.0000   0.0000   0.0000

          k = 0.0000-0.3672 0.0000 (  9296 PWs)   bands (ev):

   -31.2046 -15.7704 -15.7474 -11.6929 -11.5386 -11.1848  -7.8540  -7.8016
    -7.3650  -7.1695  -7.0751  -6.8717  -6.8601  -1.0790  -0.9857  -0.8492
    -0.7832  -0.5523  -0.4977   4.0706   4.2960   4.3454   5.0201   5.3033
     5.3420   5.4506   5.4792   6.0551   6.0690   6.2123   6.3121   6.3546
     6.4449   6.6912   6.7855   6.9208   7.1655   7.2959   7.3165   7.7631
     7.8697   8.1042   8.2488   8.3014   8.3427   8.6403   8.8067   8.8419
     8.9913   9.0005   9.0697   9.0850   9.3443   9.6595  11.2094  14.0276
    14.5338  14.9410  15.0429  15.6868  15.8747  15.9635  16.0521  16.7625
    16.9945  17.1774  17.3929  17.5226  17.9369  18.0412  18.3291  18.6738
    19.1105  19.5225  19.6041  20.1756  20.3435  20.8936  21.3355  22.4544
    23.1622  23.2127  23.6667  24.1811  24.2116  24.5730  25.3102  25.3888
    25.5188  25.9211  26.1915  26.3404  26.8572  26.9124  27.0670  27.3471
    27.4156  27.6587  28.3787  28.5679

     occupation numbers 
     1.0000   1.0000   1.0000   1.0000   1.0000   1.0000   1.0000   1.0000
     1.0000   1.0000   1.0000   1.0000   1.0000   1.0000   1.0000   1.0000
     1.0000   1.0000   1.0000   1.0000   1.0000   1.0000   1.0000   1.0000
     1.0000   1.0000   1.0000   1.0000   1.0000   1.0000   1.0000   1.0000
     1.0000   1.0000   1.0000   1.0000   1.0000   1.0000   1.0000   1.0000
     1.0000   1.0000   1.0000   1.0000   1.0000   1.0000   1.0000   1.0000
     1.0000   1.0000   1.0000   1.0000   1.0000   0.7634   0.0000   0.0000
     0.0000   0.0000   0.0000   0.0000   0.0000   0.0000   0.0000   0.0000
     0.0000   0.0000   0.0000   0.0000   0.0000   0.0000   0.0000   0.0000
     0.0000   0.0000   0.0000   0.0000   0.0000   0.0000   0.0000   0.0000
     0.0000   0.0000   0.0000   0.0000   0.0000   0.0000   0.0000   0.0000
     0.0000   0.0000   0.0000   0.0000   0.0000   0.0000   0.0000   0.0000
     0.0000   0.0000   0.0000   0.0000

          k = 0.0000-0.3672 0.0813 (  9279 PWs)   bands (ev):

   -31.2046 -15.7708 -15.7470 -11.6928 -11.5386 -11.1848  -7.8522  -7.8038
    -7.3496  -7.1938  -7.0723  -6.8734  -6.8517  -1.0876  -0.9769  -0.8474
    -0.7852  -0.5531  -0.4969   4.0942   4.2531   4.3661   5.0197   5.2867
     5.3038   5.3384   5.6984   6.0508   6.0522   6.2297   6.3290   6.3563
     6.4323   6.5924   6.7964   6.9035   7.1496   7.2963   7.3347   7.7639
     7.9476   8.1408   8.2041   8.3549   8.3678   8.6386   8.7959   8.8244
     8.9248   9.0034   9.0678   9.0812   9.3746   9.5890  11.2445  14.1004
    14.4636  14.9410  15.0692  15.5826  15.8044  15.9560  16.2173  16.6799
    16.9893  17.2438  17.2691  17.6394  17.8342  18.2296  18.4101  18.7041
    19.1085  19.4941  19.5314  20.1557  20.4905  20.5430  21.9155  22.0854
    22.8992  23.1367  23.5674  23.6911  24.5259  24.9057  25.3095  25.4150
    25.6096  26.0736  26.3449  26.5456  26.6846  26.8397  26.9740  27.2575
    27.7415  27.8199  28.2713  28.5980

     occupation numbers 
     1.0000   1.0000   1.0000   1.0000   1.0000   1.0000   1.0000   1.0000
     1.0000   1.0000   1.0000   1.0000   1.0000   1.0000   1.0000   1.0000
     1.0000   1.0000   1.0000   1.0000   1.0000   1.0000   1.0000   1.0000
     1.0000   1.0000   1.0000   1.0000   1.0000   1.0000   1.0000   1.0000
     1.0000   1.0000   1.0000   1.0000   1.0000   1.0000   1.0000   1.0000
     1.0000   1.0000   1.0000   1.0000   1.0000   1.0000   1.0000   1.0000
     1.0000   1.0000   1.0000   1.0000   0.9999   0.9264   0.0000   0.0000
     0.0000   0.0000   0.0000   0.0000   0.0000   0.0000   0.0000   0.0000
     0.0000   0.0000   0.0000   0.0000   0.0000   0.0000   0.0000   0.0000
     0.0000   0.0000   0.0000   0.0000   0.0000   0.0000   0.0000   0.0000
     0.0000   0.0000   0.0000   0.0000   0.0000   0.0000   0.0000   0.0000
     0.0000   0.0000   0.0000   0.0000   0.0000   0.0000   0.0000   0.0000
     0.0000   0.0000   0.0000   0.0000

          k = 0.0000-0.3672-0.1626 (  9272 PWs)   bands (ev):

   -31.2046 -15.7712 -15.7466 -11.6929 -11.5387 -11.1848  -7.8503  -7.8061
    -7.3296  -7.2207  -7.0717  -6.8724  -6.8459  -1.0950  -0.9692  -0.8454
    -0.7873  -0.5538  -0.4961   4.1328   4.2042   4.3775   5.0193   5.2223
     5.3045   5.3348   5.8264   6.0494   6.0498   6.2480   6.3439   6.3601
     6.4162   6.4756   6.8062   6.8864   7.1362   7.2967   7.3500   7.7648
     8.0585   8.1189   8.1796   8.3891   8.4494   8.6328   8.7842   8.7878
     8.8461   9.0067   9.0637   9.0771   9.4495   9.4786  11.2776  14.2721
    14.2913  14.9410  15.1115  15.4387  15.8640  16.0071  16.1742  16.6385
    16.9906  17.1752  17.5108  17.5200  17.7551  18.4470  18.4757  18.7354
    19.1065  19.3327  19.5405  20.1256  20.3599  20.9212  21.4236  22.5459
    22.6011  22.8758  23.5564  23.7181  24.4766  24.8915  25.3088  25.4348
    25.8855  26.0891  26.3526  26.5637  26.6879  26.9055  27.0888  27.4618
    27.8100  27.8756  28.5066  28.5579

     occupation numbers 
     1.0000   1.0000   1.0000   1.0000   1.0000   1.0000   1.0000   1.0000
     1.0000   1.0000   1.0000   1.0000   1.0000   1.0000   1.0000   1.0000
     1.0000   1.0000   1.0000   1.0000   1.0000   1.0000   1.0000   1.0000
     1.0000   1.0000   1.0000   1.0000   1.0000   1.0000   1.0000   1.0000
     1.0000   1.0000   1.0000   1.0000   1.0000   1.0000   1.0000   1.0000
     1.0000   1.0000   1.0000   1.0000   1.0000   1.0000   1.0000   1.0000
     1.0000   1.0000   1.0000   1.0000   0.9981   0.9953   0.0000   0.0000
     0.0000   0.0000   0.0000   0.0000   0.0000   0.0000   0.0000   0.0000
     0.0000   0.0000   0.0000   0.0000   0.0000   0.0000   0.0000   0.0000
     0.0000   0.0000   0.0000   0.0000   0.0000   0.0000   0.0000   0.0000
     0.0000   0.0000   0.0000   0.0000   0.0000   0.0000   0.0000   0.0000
     0.0000   0.0000   0.0000   0.0000   0.0000   0.0000   0.0000   0.0000
     0.0000   0.0000   0.0000   0.0000

          k = 0.0000-0.3672-0.0813 (  9279 PWs)   bands (ev):

   -31.2046 -15.7708 -15.7470 -11.6928 -11.5386 -11.1848  -7.8522  -7.8038
    -7.3496  -7.1938  -7.0723  -6.8734  -6.8517  -1.0876  -0.9769  -0.8474
    -0.7852  -0.5531  -0.4969   4.0942   4.2531   4.3661   5.0197   5.2867
     5.3038   5.3384   5.6984   6.0508   6.0522   6.2297   6.3290   6.3563
     6.4323   6.5924   6.7964   6.9035   7.1496   7.2963   7.3347   7.7639
     7.9476   8.1408   8.2041   8.3549   8.3678   8.6386   8.7959   8.8244
     8.9248   9.0034   9.0678   9.0812   9.3746   9.5890  11.2445  14.1004
    14.4636  14.9410  15.0692  15.5826  15.8044  15.9560  16.2173  16.6799
    16.9893  17.2438  17.2691  17.6394  17.8342  18.2296  18.4101  18.7041
    19.1085  19.4941  19.5314  20.1557  20.4905  20.5430  21.9155  22.0854
    22.8992  23.1367  23.5674  23.6911  24.5259  24.9057  25.3095  25.4150
    25.6096  26.0736  26.3449  26.5456  26.6846  26.8397  26.9740  27.2575
    27.7415  27.8199  28.2713  28.5980

     occupation numbers 
     1.0000   1.0000   1.0000   1.0000   1.0000   1.0000   1.0000   1.0000
     1.0000   1.0000   1.0000   1.0000   1.0000   1.0000   1.0000   1.0000
     1.0000   1.0000   1.0000   1.0000   1.0000   1.0000   1.0000   1.0000
     1.0000   1.0000   1.0000   1.0000   1.0000   1.0000   1.0000   1.0000
     1.0000   1.0000   1.0000   1.0000   1.0000   1.0000   1.0000   1.0000
     1.0000   1.0000   1.0000   1.0000   1.0000   1.0000   1.0000   1.0000
     1.0000   1.0000   1.0000   1.0000   0.9999   0.9264   0.0000   0.0000
     0.0000   0.0000   0.0000   0.0000   0.0000   0.0000   0.0000   0.0000
     0.0000   0.0000   0.0000   0.0000   0.0000   0.0000   0.0000   0.0000
     0.0000   0.0000   0.0000   0.0000   0.0000   0.0000   0.0000   0.0000
     0.0000   0.0000   0.0000   0.0000   0.0000   0.0000   0.0000   0.0000
     0.0000   0.0000   0.0000   0.0000   0.0000   0.0000   0.0000   0.0000
     0.0000   0.0000   0.0000   0.0000

          k = 0.0000-0.2448 0.0000 (  9272 PWs)   bands (ev):

   -31.2087 -15.8108 -15.7867 -11.6214 -11.5149 -11.1906  -8.1276  -7.6710
    -7.3634  -7.2707  -7.0910  -6.7368  -6.7004  -1.1057  -1.0223  -0.8617
    -0.8038  -0.6284  -0.5766   4.4547   4.6110   4.8267   5.1014   5.1171
     5.2435   5.3836   5.7820   6.0543   6.3492   6.4298   6.5047   6.5132
     6.6688   6.7462   7.1325   7.1346   7.2268   7.2622   7.5042   7.6998
     7.7921   8.1641   8.1867   8.2311   8.3687   8.4003   8.5798   8.7166
     8.8072   9.0382   9.0524   9.1635   9.2459   9.6768  10.6046  13.5898
    13.6612  14.8645  14.9920  15.0763  15.1448  16.0631  16.2009  16.4599
    16.5648  16.6932  17.0472  17.3564  17.7810  17.9144  18.3369  18.4554
    18.7189  19.4100  19.6287  19.8578  20.1586  20.6089  21.8997  22.8838
    22.9628  23.6754  23.7554  23.9164  23.9195  24.0734  24.3034  25.7956
    25.8387  26.0143  26.0955  26.9479  27.0690  27.5094  27.5234  27.5948
    27.9238  28.0434  28.5204  29.2698

     occupation numbers 
     1.0000   1.0000   1.0000   1.0000   1.0000   1.0000   1.0000   1.0000
     1.0000   1.0000   1.0000   1.0000   1.0000   1.0000   1.0000   1.0000
     1.0000   1.0000   1.0000   1.0000   1.0000   1.0000   1.0000   1.0000
     1.0000   1.0000   1.0000   1.0000   1.0000   1.0000   1.0000   1.0000
     1.0000   1.0000   1.0000   1.0000   1.0000   1.0000   1.0000   1.0000
     1.0000   1.0000   1.0000   1.0000   1.0000   1.0000   1.0000   1.0000
     1.0000   1.0000   1.0000   1.0000   1.0000   0.7043   0.0000   0.0000
     0.0000   0.0000   0.0000   0.0000   0.0000   0.0000   0.0000   0.0000
     0.0000   0.0000   0.0000   0.0000   0.0000   0.0000   0.0000   0.0000
     0.0000   0.0000   0.0000   0.0000   0.0000   0.0000   0.0000   0.0000
     0.0000   0.0000   0.0000   0.0000   0.0000   0.0000   0.0000   0.0000
     0.0000   0.0000   0.0000   0.0000   0.0000   0.0000   0.0000   0.0000
     0.0000   0.0000   0.0000   0.0000

          k = 0.0000-0.2448 0.0813 (  9271 PWs)   bands (ev):

   -31.2087 -15.8112 -15.7863 -11.6215 -11.5149 -11.1906  -8.1261  -7.6724
    -7.3563  -7.2812  -7.0890  -6.7378  -6.6979  -1.1150  -1.0128  -0.8596
    -0.8059  -0.6291  -0.5758   4.4799   4.5916   4.8252   5.0992   5.1147
     5.2447   5.3337   5.8515   6.0591   6.3544   6.4294   6.4842   6.5472
     6.6581   6.6909   7.0991   7.1400   7.2413   7.2748   7.4981   7.7189
     7.8099   8.0890   8.2128   8.3414   8.4020   8.4211   8.5571   8.6859
     8.8066   8.9641   9.0137   9.1669   9.3202   9.6049  10.6370  13.6053
    13.6568  14.9240  14.9919  15.0192  15.2560  15.7257  16.1619  16.3053
    16.7831  16.9597  17.1337  17.3602  17.6361  18.0366  18.3815  18.4639
    18.7154  18.8869  19.7996  20.1700  20.2489  20.5734  22.0143  22.2842
    22.7967  23.6259  23.7224  23.8095  23.9989  24.2662  24.4972  25.6920
    25.8856  26.0855  26.4959  26.8846  26.9430  27.1232  27.5971  27.9527
    28.1506  28.3636  28.6341  29.2610

     occupation numbers 
     1.0000   1.0000   1.0000   1.0000   1.0000   1.0000   1.0000   1.0000
     1.0000   1.0000   1.0000   1.0000   1.0000   1.0000   1.0000   1.0000
     1.0000   1.0000   1.0000   1.0000   1.0000   1.0000   1.0000   1.0000
     1.0000   1.0000   1.0000   1.0000   1.0000   1.0000   1.0000   1.0000
     1.0000   1.0000   1.0000   1.0000   1.0000   1.0000   1.0000   1.0000
     1.0000   1.0000   1.0000   1.0000   1.0000   1.0000   1.0000   1.0000
     1.0000   1.0000   1.0000   1.0000   1.0000   0.9006   0.0000   0.0000
     0.0000   0.0000   0.0000   0.0000   0.0000   0.0000   0.0000   0.0000
     0.0000   0.0000   0.0000   0.0000   0.0000   0.0000   0.0000   0.0000
     0.0000   0.0000   0.0000   0.0000   0.0000   0.0000   0.0000   0.0000
     0.0000   0.0000   0.0000   0.0000   0.0000   0.0000   0.0000   0.0000
     0.0000   0.0000   0.0000   0.0000   0.0000   0.0000   0.0000   0.0000
     0.0000   0.0000   0.0000   0.0000

          k = 0.0000-0.2448-0.1626 (  9276 PWs)   bands (ev):

   -31.2087 -15.8116 -15.7858 -11.6216 -11.5149 -11.1906  -8.1245  -7.6738
    -7.3470  -7.2939  -7.0872  -6.7387  -6.6955  -1.1229  -1.0048  -0.8574
    -0.8082  -0.6299  -0.5750   4.5366   4.5405   4.8235   5.0972   5.1124
     5.2458   5.2949   5.8937   6.0917   6.3592   6.4291   6.4764   6.5732
     6.6241   6.6426   7.0813   7.1354   7.2650   7.2733   7.4926   7.7401
     7.8267   8.0364   8.2572   8.4139   8.4462   8.4902   8.5009   8.6451
     8.8064   8.8734   8.9806   9.1701   9.4430   9.4776  10.6663  13.6286
    13.6445  14.9135  14.9917  15.1680  15.3156  15.4237  16.0668  16.2366
    17.0062  17.1083  17.3282  17.3484  17.3750  18.3695  18.3828  18.4076
    18.4798  18.7113  19.8093  20.1813  20.3998  20.9799  21.5031  22.1656
    22.5840  23.6605  23.7006  23.9182  24.1038  24.1927  24.5150  25.6215
    25.9054  26.2348  26.5182  26.9123  27.0154  27.1827  27.5993  27.9657
    28.4990  28.7811  28.9780  29.2356

     occupation numbers 
     1.0000   1.0000   1.0000   1.0000   1.0000   1.0000   1.0000   1.0000
     1.0000   1.0000   1.0000   1.0000   1.0000   1.0000   1.0000   1.0000
     1.0000   1.0000   1.0000   1.0000   1.0000   1.0000   1.0000   1.0000
     1.0000   1.0000   1.0000   1.0000   1.0000   1.0000   1.0000   1.0000
     1.0000   1.0000   1.0000   1.0000   1.0000   1.0000   1.0000   1.0000
     1.0000   1.0000   1.0000   1.0000   1.0000   1.0000   1.0000   1.0000
     1.0000   1.0000   1.0000   1.0000   0.9985   0.9954   0.0000   0.0000
     0.0000   0.0000   0.0000   0.0000   0.0000   0.0000   0.0000   0.0000
     0.0000   0.0000   0.0000   0.0000   0.0000   0.0000   0.0000   0.0000
     0.0000   0.0000   0.0000   0.0000   0.0000   0.0000   0.0000   0.0000
     0.0000   0.0000   0.0000   0.0000   0.0000   0.0000   0.0000   0.0000
     0.0000   0.0000   0.0000   0.0000   0.0000   0.0000   0.0000   0.0000
     0.0000   0.0000   0.0000   0.0000

          k = 0.0000-0.2448-0.0813 (  9271 PWs)   bands (ev):

   -31.2087 -15.8112 -15.7863 -11.6215 -11.5149 -11.1906  -8.1261  -7.6724
    -7.3563  -7.2812  -7.0890  -6.7378  -6.6979  -1.1150  -1.0128  -0.8596
    -0.8059  -0.6291  -0.5758   4.4799   4.5916   4.8252   5.0992   5.1147
     5.2447   5.3337   5.8515   6.0591   6.3544   6.4294   6.4842   6.5472
     6.6581   6.6909   7.0991   7.1400   7.2413   7.2748   7.4981   7.7189
     7.8099   8.0890   8.2128   8.3414   8.4020   8.4211   8.5571   8.6859
     8.8066   8.9641   9.0137   9.1669   9.3202   9.6049  10.6370  13.6053
    13.6568  14.9240  14.9919  15.0192  15.2560  15.7257  16.1619  16.3053
    16.7831  16.9597  17.1337  17.3602  17.6361  18.0366  18.3815  18.4639
    18.7154  18.8869  19.7996  20.1700  20.2489  20.5734  22.0143  22.2842
    22.7967  23.6259  23.7224  23.8095  23.9989  24.2662  24.4972  25.6920
    25.8856  26.0855  26.4959  26.8846  26.9430  27.1232  27.5971  27.9527
    28.1506  28.3636  28.6341  29.2610

     occupation numbers 
     1.0000   1.0000   1.0000   1.0000   1.0000   1.0000   1.0000   1.0000
     1.0000   1.0000   1.0000   1.0000   1.0000   1.0000   1.0000   1.0000
     1.0000   1.0000   1.0000   1.0000   1.0000   1.0000   1.0000   1.0000
     1.0000   1.0000   1.0000   1.0000   1.0000   1.0000   1.0000   1.0000
     1.0000   1.0000   1.0000   1.0000   1.0000   1.0000   1.0000   1.0000
     1.0000   1.0000   1.0000   1.0000   1.0000   1.0000   1.0000   1.0000
     1.0000   1.0000   1.0000   1.0000   1.0000   0.9006   0.0000   0.0000
     0.0000   0.0000   0.0000   0.0000   0.0000   0.0000   0.0000   0.0000
     0.0000   0.0000   0.0000   0.0000   0.0000   0.0000   0.0000   0.0000
     0.0000   0.0000   0.0000   0.0000   0.0000   0.0000   0.0000   0.0000
     0.0000   0.0000   0.0000   0.0000   0.0000   0.0000   0.0000   0.0000
     0.0000   0.0000   0.0000   0.0000   0.0000   0.0000   0.0000   0.0000
     0.0000   0.0000   0.0000   0.0000

          k = 0.0000-0.1224 0.0000 (  9240 PWs)   bands (ev):

   -31.2127 -15.8503 -15.8253 -11.6989 -11.3133 -11.1964  -8.3859  -7.5770
    -7.4404  -7.3131  -7.0743  -6.6105  -6.5436  -1.1143  -1.0576  -0.8754
    -0.8366  -0.7014  -0.6522   4.8309   4.8356   4.9727   5.0997   5.2059
     5.2285   5.7421   6.1025   6.2020   6.3766   6.6230   6.8247   6.8429
     6.8717   6.9825   7.1302   7.1669   7.4880   7.5269   7.5869   7.5913
     7.9198   7.9325   7.9606   8.0905   8.1840   8.2841   8.4663   8.6349
     8.8232   8.9869   9.0819   9.2103   9.3644   9.5372   9.7538  12.7383
    13.2877  14.2696  14.2703  14.9323  15.0465  15.7740  16.0359  16.2005
    16.3329  16.6784  16.9630  17.3854  17.6287  18.0411  18.0482  18.1276
    18.4120  19.0120  19.1715  19.9336  20.7825  20.8785  22.0655  22.5096
    22.7270  22.9029  23.1354  24.0810  24.3264  24.3928  24.4563  25.1209
    25.7147  25.8759  25.8777  27.2533  27.2764  27.5262  27.7267  27.8435
    28.5539  28.8112  28.9300  29.1843

     occupation numbers 
     1.0000   1.0000   1.0000   1.0000   1.0000   1.0000   1.0000   1.0000
     1.0000   1.0000   1.0000   1.0000   1.0000   1.0000   1.0000   1.0000
     1.0000   1.0000   1.0000   1.0000   1.0000   1.0000   1.0000   1.0000
     1.0000   1.0000   1.0000   1.0000   1.0000   1.0000   1.0000   1.0000
     1.0000   1.0000   1.0000   1.0000   1.0000   1.0000   1.0000   1.0000
     1.0000   1.0000   1.0000   1.0000   1.0000   1.0000   1.0000   1.0000
     1.0000   1.0000   1.0000   1.0000   0.9999   0.9766   0.3960   0.0000
     0.0000   0.0000   0.0000   0.0000   0.0000   0.0000   0.0000   0.0000
     0.0000   0.0000   0.0000   0.0000   0.0000   0.0000   0.0000   0.0000
     0.0000   0.0000   0.0000   0.0000   0.0000   0.0000   0.0000   0.0000
     0.0000   0.0000   0.0000   0.0000   0.0000   0.0000   0.0000   0.0000
     0.0000   0.0000   0.0000   0.0000   0.0000   0.0000   0.0000   0.0000
     0.0000   0.0000   0.0000   0.0000

          k = 0.0000-0.1224 0.0813 (  9248 PWs)   bands (ev):

   -31.2127 -15.8508 -15.8247 -11.6990 -11.3133 -11.1964  -8.3842  -7.5805
    -7.4392  -7.3139  -7.0739  -6.6124  -6.5404  -1.1284  -1.0438  -0.8751
    -0.8369  -0.7021  -0.6514   4.8063   4.8870   4.9710   5.0714   5.2070
     5.2253   5.7400   6.0883   6.2316   6.3711   6.6225   6.7985   6.8318
     6.8884   6.9793   7.1304   7.1813   7.5004   7.5084   7.5738   7.6230
     7.9214   7.9379   7.9389   8.1501   8.1850   8.2611   8.4859   8.6744
     8.8060   8.9061   9.1104   9.1770   9.3672   9.5003   9.7885  12.8305
    13.2370  14.1881  14.3778  14.8525  15.0465  15.5122  15.9858  16.3553
    16.5896  16.7008  17.0459  17.4248  17.5097  18.0219  18.0339  18.1492
    18.4221  18.6576  19.4966  20.0152  20.8062  20.9831  21.9292  22.1535
    22.5572  22.8890  23.1787  24.0583  24.3493  24.3535  24.4810  25.3195
    25.7281  25.8794  26.4432  26.9208  27.1532  27.5371  27.8383  28.1098
    28.6317  28.7421  29.0454  29.2040

     occupation numbers 
     1.0000   1.0000   1.0000   1.0000   1.0000   1.0000   1.0000   1.0000
     1.0000   1.0000   1.0000   1.0000   1.0000   1.0000   1.0000   1.0000
     1.0000   1.0000   1.0000   1.0000   1.0000   1.0000   1.0000   1.0000
     1.0000   1.0000   1.0000   1.0000   1.0000   1.0000   1.0000   1.0000
     1.0000   1.0000   1.0000   1.0000   1.0000   1.0000   1.0000   1.0000
     1.0000   1.0000   1.0000   1.0000   1.0000   1.0000   1.0000   1.0000
     1.0000   1.0000   1.0000   1.0000   0.9999   0.9912   0.2664   0.0000
     0.0000   0.0000   0.0000   0.0000   0.0000   0.0000   0.0000   0.0000
     0.0000   0.0000   0.0000   0.0000   0.0000   0.0000   0.0000   0.0000
     0.0000   0.0000   0.0000   0.0000   0.0000   0.0000   0.0000   0.0000
     0.0000   0.0000   0.0000   0.0000   0.0000   0.0000   0.0000   0.0000
     0.0000   0.0000   0.0000   0.0000   0.0000   0.0000   0.0000   0.0000
     0.0000   0.0000   0.0000   0.0000

          k = 0.0000-0.1224-0.1626 (  9264 PWs)   bands (ev):

   -31.2127 -15.8513 -15.8242 -11.6992 -11.3133 -11.1964  -8.3825  -7.5839
    -7.4380  -7.3147  -7.0736  -6.6143  -6.5374  -1.1389  -1.0335  -0.8747
    -0.8372  -0.7029  -0.6506   4.7987   4.9380   4.9693   5.0261   5.2082
     5.2225   5.7382   6.0758   6.2590   6.3679   6.6221   6.7715   6.8250
     6.9013   6.9755   7.1306   7.1944   7.4965   7.5208   7.5529   7.6505
     7.9154   7.9225   7.9459   8.1859   8.1948   8.2615   8.5067   8.7373
     8.7870   8.8222   9.0447   9.2105   9.3699   9.4688   9.8139  12.9997
    13.1048  14.1261  14.5987  14.6619  15.0464  15.2775  16.1296  16.3172
    16.7034  16.8281  17.2383  17.2858  17.4607  17.9796  18.0297  18.1643
    18.4314  18.4992  19.6380  20.0990  20.8300  21.2146  21.6644  21.8100
    22.4398  22.8749  23.2127  24.0977  24.3192  24.3427  24.4934  25.3855
    25.6973  26.2098  26.4672  26.8434  27.4554  27.8219  27.8416  28.0093
    28.5066  28.8103  28.8126  29.0658

     occupation numbers 
     1.0000   1.0000   1.0000   1.0000   1.0000   1.0000   1.0000   1.0000
     1.0000   1.0000   1.0000   1.0000   1.0000   1.0000   1.0000   1.0000
     1.0000   1.0000   1.0000   1.0000   1.0000   1.0000   1.0000   1.0000
     1.0000   1.0000   1.0000   1.0000   1.0000   1.0000   1.0000   1.0000
     1.0000   1.0000   1.0000   1.0000   1.0000   1.0000   1.0000   1.0000
     1.0000   1.0000   1.0000   1.0000   1.0000   1.0000   1.0000   1.0000
     1.0000   1.0000   1.0000   1.0000   0.9999   0.9965   0.1874   0.0000
     0.0000   0.0000   0.0000   0.0000   0.0000   0.0000   0.0000   0.0000
     0.0000   0.0000   0.0000   0.0000   0.0000   0.0000   0.0000   0.0000
     0.0000   0.0000   0.0000   0.0000   0.0000   0.0000   0.0000   0.0000
     0.0000   0.0000   0.0000   0.0000   0.0000   0.0000   0.0000   0.0000
     0.0000   0.0000   0.0000   0.0000   0.0000   0.0000   0.0000   0.0000
     0.0000   0.0000   0.0000   0.0000

          k = 0.0000-0.1224-0.0813 (  9248 PWs)   bands (ev):

   -31.2127 -15.8508 -15.8247 -11.6990 -11.3133 -11.1964  -8.3842  -7.5805
    -7.4392  -7.3139  -7.0739  -6.6124  -6.5404  -1.1284  -1.0438  -0.8751
    -0.8369  -0.7021  -0.6514   4.8063   4.8870   4.9710   5.0714   5.2070
     5.2253   5.7400   6.0883   6.2316   6.3711   6.6225   6.7985   6.8318
     6.8884   6.9793   7.1304   7.1813   7.5004   7.5084   7.5738   7.6230
     7.9214   7.9379   7.9389   8.1501   8.1850   8.2611   8.4859   8.6744
     8.8060   8.9061   9.1104   9.1770   9.3672   9.5003   9.7885  12.8305
    13.2370  14.1881  14.3778  14.8525  15.0465  15.5122  15.9858  16.3553
    16.5896  16.7008  17.0459  17.4248  17.5097  18.0219  18.0339  18.1492
    18.4221  18.6576  19.4966  20.0152  20.8062  20.9831  21.9292  22.1535
    22.5572  22.8890  23.1787  24.0583  24.3493  24.3535  24.4810  25.3195
    25.7281  25.8794  26.4432  26.9208  27.1532  27.5371  27.8383  28.1098
    28.6317  28.7421  29.0454  29.2040

     occupation numbers 
     1.0000   1.0000   1.0000   1.0000   1.0000   1.0000   1.0000   1.0000
     1.0000   1.0000   1.0000   1.0000   1.0000   1.0000   1.0000   1.0000
     1.0000   1.0000   1.0000   1.0000   1.0000   1.0000   1.0000   1.0000
     1.0000   1.0000   1.0000   1.0000   1.0000   1.0000   1.0000   1.0000
     1.0000   1.0000   1.0000   1.0000   1.0000   1.0000   1.0000   1.0000
     1.0000   1.0000   1.0000   1.0000   1.0000   1.0000   1.0000   1.0000
     1.0000   1.0000   1.0000   1.0000   0.9999   0.9912   0.2664   0.0000
     0.0000   0.0000   0.0000   0.0000   0.0000   0.0000   0.0000   0.0000
     0.0000   0.0000   0.0000   0.0000   0.0000   0.0000   0.0000   0.0000
     0.0000   0.0000   0.0000   0.0000   0.0000   0.0000   0.0000   0.0000
     0.0000   0.0000   0.0000   0.0000   0.0000   0.0000   0.0000   0.0000
     0.0000   0.0000   0.0000   0.0000   0.0000   0.0000   0.0000   0.0000
     0.0000   0.0000   0.0000   0.0000

          k = 0.1250 0.0000 0.0000 (  9266 PWs)   bands (ev):

   -31.2123 -15.8467 -15.8227 -11.6950 -11.3031 -11.2173  -8.3872  -7.5470
    -7.5043  -7.2964  -7.1075  -6.6074  -6.4905  -1.1421  -1.0993  -0.8467
    -0.8201  -0.7062  -0.6939   4.7810   4.8084   4.9559   5.0662   5.2480
     5.2523   6.1178   6.2338   6.3031   6.4153   6.5557   6.7871   6.8848
     6.8863   7.1656   7.2041   7.2254   7.4488   7.5668   7.5812   7.6153
     7.6512   7.8502   7.9392   8.0116   8.1302   8.2185   8.4914   8.5026
     8.8514   9.0905   9.1396   9.2101   9.2777   9.3430   9.4322  12.7232
    13.2889  14.2361  14.3458  15.0302  15.0492  15.8407  16.0888  16.2048
    16.5275  16.8096  16.9658  17.1001  17.6861  18.0933  18.1010  18.2128
    18.2283  18.7723  19.0874  19.7082  20.6586  21.7654  21.9344  22.2894
    22.4775  22.9900  23.1620  24.1600  24.2648  24.5380  24.7614  24.7674
    25.5793  25.6583  26.0838  27.2061  27.2148  27.5777  27.9173  27.9586
    28.5941  29.0289  29.3491  29.4516

     occupation numbers 
     1.0000   1.0000   1.0000   1.0000   1.0000   1.0000   1.0000   1.0000
     1.0000   1.0000   1.0000   1.0000   1.0000   1.0000   1.0000   1.0000
     1.0000   1.0000   1.0000   1.0000   1.0000   1.0000   1.0000   1.0000
     1.0000   1.0000   1.0000   1.0000   1.0000   1.0000   1.0000   1.0000
     1.0000   1.0000   1.0000   1.0000   1.0000   1.0000   1.0000   1.0000
     1.0000   1.0000   1.0000   1.0000   1.0000   1.0000   1.0000   1.0000
     1.0000   1.0000   1.0000   1.0000   1.0000   1.0000   0.9990   0.0000
     0.0000   0.0000   0.0000   0.0000   0.0000   0.0000   0.0000   0.0000
     0.0000   0.0000   0.0000   0.0000   0.0000   0.0000   0.0000   0.0000
     0.0000   0.0000   0.0000   0.0000   0.0000   0.0000   0.0000   0.0000
     0.0000   0.0000   0.0000   0.0000   0.0000   0.0000   0.0000   0.0000
     0.0000   0.0000   0.0000   0.0000   0.0000   0.0000   0.0000   0.0000
     0.0000   0.0000   0.0000   0.0000

          k = 0.1250 0.0000 0.0813 (  9266 PWs)   bands (ev):

   -31.2123 -15.8472 -15.8221 -11.6951 -11.3031 -11.2173  -8.3858  -7.5520
    -7.5013  -7.2965  -7.1073  -6.6095  -6.4877  -1.1360  -1.1057  -0.8474
    -0.8193  -0.7069  -0.6935   4.7851   4.8249   4.9546   5.0498   5.2494
     5.2534   6.1145   6.2348   6.2972   6.4149   6.5791   6.7454   6.8842
     6.8868   7.1554   7.2088   7.2254   7.4592   7.5571   7.5587   7.6265
     7.6641   7.8531   7.9381   8.0424   8.1497   8.2071   8.5013   8.5464
     8.7942   9.1139   9.1354   9.1744   9.2953   9.3452   9.4062  12.8242
    13.2425  14.1492  14.4282  14.9047  15.0304  15.5799  16.1593  16.4233
    16.5902  16.9711  16.9913  17.1164  17.6259  18.0642  18.1053  18.1500
    18.1813  18.7222  19.3682  19.7580  20.5222  21.3815  22.0088  22.3895
    22.4109  22.8981  23.0373  24.1802  24.2943  24.5621  24.6450  24.8052
    25.8219  25.9213  26.4218  27.0364  27.0966  27.3544  27.9319  28.2828
    28.7320  29.0100  29.2914  29.3502

     occupation numbers 
     1.0000   1.0000   1.0000   1.0000   1.0000   1.0000   1.0000   1.0000
     1.0000   1.0000   1.0000   1.0000   1.0000   1.0000   1.0000   1.0000
     1.0000   1.0000   1.0000   1.0000   1.0000   1.0000   1.0000   1.0000
     1.0000   1.0000   1.0000   1.0000   1.0000   1.0000   1.0000   1.0000
     1.0000   1.0000   1.0000   1.0000   1.0000   1.0000   1.0000   1.0000
     1.0000   1.0000   1.0000   1.0000   1.0000   1.0000   1.0000   1.0000
     1.0000   1.0000   1.0000   1.0000   1.0000   1.0000   0.9996   0.0000
     0.0000   0.0000   0.0000   0.0000   0.0000   0.0000   0.0000   0.0000
     0.0000   0.0000   0.0000   0.0000   0.0000   0.0000   0.0000   0.0000
     0.0000   0.0000   0.0000   0.0000   0.0000   0.0000   0.0000   0.0000
     0.0000   0.0000   0.0000   0.0000   0.0000   0.0000   0.0000   0.0000
     0.0000   0.0000   0.0000   0.0000   0.0000   0.0000   0.0000   0.0000
     0.0000   0.0000   0.0000   0.0000

          k = 0.1250 0.0000-0.1626 (  9286 PWs)   bands (ev):

   -31.2123 -15.8477 -15.8216 -11.6952 -11.3031 -11.2173  -8.3844  -7.5566
    -7.4988  -7.2966  -7.1071  -6.6115  -6.4849  -1.1226  -1.1194  -0.8481
    -0.8186  -0.7076  -0.6931   4.7874   4.8468   4.9533   5.0297   5.2508
     5.2545   6.1107   6.2357   6.2922   6.4144   6.6272   6.6800   6.8837
     6.8872   7.1414   7.2184   7.2254   7.4795   7.5230   7.5528   7.6358
     7.6743   7.8591   7.9245   8.0988   8.1565   8.1962   8.5106   8.6144
     8.7179   9.1310   9.1312   9.1350   9.3355   9.3473   9.3597  13.0209
    13.0959  14.0777  14.6006  14.6893  15.0305  15.3723  16.3590  16.4557
    16.6494  17.0024  17.1042  17.1458  17.5557  18.0107  18.1028  18.1544
    18.1697  18.6666  19.6195  19.9663  20.2035  21.3612  21.4723  22.5615
    22.7343  22.7445  22.8419  24.2408  24.3410  24.5331  24.5448  24.8293
    25.8537  26.1956  26.6148  26.9196  27.2998  27.6809  27.9340  28.0812
    28.7583  28.8220  29.0029  29.4642

     occupation numbers 
     1.0000   1.0000   1.0000   1.0000   1.0000   1.0000   1.0000   1.0000
     1.0000   1.0000   1.0000   1.0000   1.0000   1.0000   1.0000   1.0000
     1.0000   1.0000   1.0000   1.0000   1.0000   1.0000   1.0000   1.0000
     1.0000   1.0000   1.0000   1.0000   1.0000   1.0000   1.0000   1.0000
     1.0000   1.0000   1.0000   1.0000   1.0000   1.0000   1.0000   1.0000
     1.0000   1.0000   1.0000   1.0000   1.0000   1.0000   1.0000   1.0000
     1.0000   1.0000   1.0000   1.0000   1.0000   1.0000   0.9999   0.0000
     0.0000   0.0000   0.0000   0.0000   0.0000   0.0000   0.0000   0.0000
     0.0000   0.0000   0.0000   0.0000   0.0000   0.0000   0.0000   0.0000
     0.0000   0.0000   0.0000   0.0000   0.0000   0.0000   0.0000   0.0000
     0.0000   0.0000   0.0000   0.0000   0.0000   0.0000   0.0000   0.0000
     0.0000   0.0000   0.0000   0.0000   0.0000   0.0000   0.0000   0.0000
     0.0000   0.0000   0.0000   0.0000

          k = 0.1250 0.0000-0.0813 (  9266 PWs)   bands (ev):

   -31.2123 -15.8472 -15.8221 -11.6951 -11.3031 -11.2173  -8.3858  -7.5520
    -7.5013  -7.2965  -7.1073  -6.6095  -6.4877  -1.1360  -1.1057  -0.8474
    -0.8193  -0.7069  -0.6935   4.7851   4.8249   4.9546   5.0498   5.2494
     5.2534   6.1145   6.2348   6.2972   6.4149   6.5791   6.7454   6.8842
     6.8868   7.1554   7.2088   7.2254   7.4592   7.5571   7.5587   7.6265
     7.6641   7.8531   7.9381   8.0424   8.1497   8.2071   8.5013   8.5464
     8.7942   9.1139   9.1354   9.1744   9.2953   9.3452   9.4062  12.8242
    13.2425  14.1492  14.4282  14.9047  15.0304  15.5799  16.1593  16.4233
    16.5902  16.9711  16.9913  17.1164  17.6259  18.0642  18.1053  18.1500
    18.1813  18.7222  19.3682  19.7580  20.5222  21.3815  22.0088  22.3895
    22.4109  22.8981  23.0373  24.1802  24.2943  24.5621  24.6450  24.8052
    25.8219  25.9213  26.4218  27.0364  27.0966  27.3544  27.9319  28.2828
    28.7320  29.0100  29.2914  29.3502

     occupation numbers 
     1.0000   1.0000   1.0000   1.0000   1.0000   1.0000   1.0000   1.0000
     1.0000   1.0000   1.0000   1.0000   1.0000   1.0000   1.0000   1.0000
     1.0000   1.0000   1.0000   1.0000   1.0000   1.0000   1.0000   1.0000
     1.0000   1.0000   1.0000   1.0000   1.0000   1.0000   1.0000   1.0000
     1.0000   1.0000   1.0000   1.0000   1.0000   1.0000   1.0000   1.0000
     1.0000   1.0000   1.0000   1.0000   1.0000   1.0000   1.0000   1.0000
     1.0000   1.0000   1.0000   1.0000   1.0000   1.0000   0.9996   0.0000
     0.0000   0.0000   0.0000   0.0000   0.0000   0.0000   0.0000   0.0000
     0.0000   0.0000   0.0000   0.0000   0.0000   0.0000   0.0000   0.0000
     0.0000   0.0000   0.0000   0.0000   0.0000   0.0000   0.0000   0.0000
     0.0000   0.0000   0.0000   0.0000   0.0000   0.0000   0.0000   0.0000
     0.0000   0.0000   0.0000   0.0000   0.0000   0.0000   0.0000   0.0000
     0.0000   0.0000   0.0000   0.0000

          k = 0.1250 0.1224 0.0000 (  9267 PWs)   bands (ev):

   -31.2106 -15.8311 -15.8075 -11.6647 -11.3151 -11.2939  -8.2770  -7.5635
    -7.4648  -7.2784  -7.1330  -6.6468  -6.5454  -1.1264  -1.0977  -0.9267
    -0.9157  -0.6229  -0.6121   4.6825   4.7846   4.9404   5.0576   5.1110
     5.3152   5.7317   6.1384   6.1780   6.3119   6.4534   6.6022   6.6205
     6.9461   7.0631   7.1295   7.2218   7.4289   7.4773   7.5127   7.6542
     7.9344   7.9346   8.0432   8.0884   8.1405   8.1907   8.3309   8.5989
     8.8433   9.0575   9.2717   9.3036   9.4242   9.5960   9.7873  13.0026
    13.4223  14.5331  14.5706  14.9255  15.1416  15.9788  16.2053  16.2351
    16.2433  16.7014  17.1114  17.1414  17.7010  17.9790  18.1643  18.3027
    18.4468  19.0903  19.3364  19.7776  20.5825  21.0775  22.0990  22.3522
    22.4480  23.1939  23.7506  23.8623  23.9749  24.5043  24.9514  25.2029
    25.5580  25.7107  26.2417  26.9915  27.1381  27.8154  27.8337  28.1237
    28.5455  28.9696  29.0278  29.1578

     occupation numbers 
     1.0000   1.0000   1.0000   1.0000   1.0000   1.0000   1.0000   1.0000
     1.0000   1.0000   1.0000   1.0000   1.0000   1.0000   1.0000   1.0000
     1.0000   1.0000   1.0000   1.0000   1.0000   1.0000   1.0000   1.0000
     1.0000   1.0000   1.0000   1.0000   1.0000   1.0000   1.0000   1.0000
     1.0000   1.0000   1.0000   1.0000   1.0000   1.0000   1.0000   1.0000
     1.0000   1.0000   1.0000   1.0000   1.0000   1.0000   1.0000   1.0000
     1.0000   1.0000   1.0000   1.0000   0.9992   0.9158   0.2706   0.0000
     0.0000   0.0000   0.0000   0.0000   0.0000   0.0000   0.0000   0.0000
     0.0000   0.0000   0.0000   0.0000   0.0000   0.0000   0.0000   0.0000
     0.0000   0.0000   0.0000   0.0000   0.0000   0.0000   0.0000   0.0000
     0.0000   0.0000   0.0000   0.0000   0.0000   0.0000   0.0000   0.0000
     0.0000   0.0000   0.0000   0.0000   0.0000   0.0000   0.0000   0.0000
     0.0000   0.0000   0.0000   0.0000

          k = 0.1250 0.1224 0.0813 (  9256 PWs)   bands (ev):

   -31.2106 -15.8316 -15.8070 -11.6648 -11.3151 -11.2938  -8.2757  -7.5655
    -7.4645  -7.2784  -7.1331  -6.6492  -6.5423  -1.1228  -1.1020  -0.9249
    -0.9164  -0.6230  -0.6127   4.7051   4.7786   4.9392   5.0514   5.0996
     5.3143   5.7277   6.1645   6.1824   6.3137   6.4318   6.6045   6.6234
     6.9137   7.0391   7.1201   7.2363   7.4603   7.4943   7.5063   7.6302
     7.9118   7.9525   8.0931   8.1078   8.1416   8.1941   8.3171   8.6147
     8.8773   9.0233   9.1706   9.3388   9.4226   9.5753   9.8228  13.0774
    13.3812  14.4496  14.6472  14.9357  15.0910  15.7031  15.9960  16.3940
    16.6346  16.7020  17.1360  17.2019  17.6886  17.9634  18.1666  18.3267
    18.4206  18.8148  19.6610  19.8622  20.4725  21.1570  22.0160  22.1909
    22.3524  22.8906  23.4166  23.9680  24.3573  24.5101  24.9335  25.2883
    25.6707  26.1514  26.2139  26.6314  27.4772  27.5278  28.0410  28.2769
    28.6981  28.8590  29.0795  29.1653

     occupation numbers 
     1.0000   1.0000   1.0000   1.0000   1.0000   1.0000   1.0000   1.0000
     1.0000   1.0000   1.0000   1.0000   1.0000   1.0000   1.0000   1.0000
     1.0000   1.0000   1.0000   1.0000   1.0000   1.0000   1.0000   1.0000
     1.0000   1.0000   1.0000   1.0000   1.0000   1.0000   1.0000   1.0000
     1.0000   1.0000   1.0000   1.0000   1.0000   1.0000   1.0000   1.0000
     1.0000   1.0000   1.0000   1.0000   1.0000   1.0000   1.0000   1.0000
     1.0000   1.0000   1.0000   1.0000   0.9993   0.9443   0.1635   0.0000
     0.0000   0.0000   0.0000   0.0000   0.0000   0.0000   0.0000   0.0000
     0.0000   0.0000   0.0000   0.0000   0.0000   0.0000   0.0000   0.0000
     0.0000   0.0000   0.0000   0.0000   0.0000   0.0000   0.0000   0.0000
     0.0000   0.0000   0.0000   0.0000   0.0000   0.0000   0.0000   0.0000
     0.0000   0.0000   0.0000   0.0000   0.0000   0.0000   0.0000   0.0000
     0.0000   0.0000   0.0000   0.0000

          k = 0.1250 0.1224-0.1626 (  9268 PWs)   bands (ev):

   -31.2106 -15.8321 -15.8065 -11.6648 -11.3151 -11.2938  -8.2744  -7.5675
    -7.4642  -7.2784  -7.1331  -6.6516  -6.5394  -1.1166  -1.1089  -0.9231
    -0.9173  -0.6232  -0.6132   4.7415   4.7603   4.9381   5.0403   5.0913
     5.3133   5.7240   6.1814   6.1948   6.3350   6.3922   6.6073   6.6268
     6.8765   7.0210   7.1193   7.2434   7.4787   7.4930   7.5590   7.5749
     7.9012   7.9606   8.1010   8.1311   8.1755   8.2275   8.2806   8.6332
     8.9243   8.9744   9.1108   9.2842   9.4978   9.5286   9.8499  13.2337
    13.2573  14.3833  14.7984  14.9201  14.9628  15.5015  16.0569  16.3935
    16.7151  16.8584  17.1666  17.2094  17.7113  17.9452  18.1917  18.3744
    18.3766  18.6334  19.8057  20.1696  20.2099  21.4102  21.6583  21.9733
    22.2720  22.7267  23.4538  24.0240  24.4505  24.5222  24.9085  25.5170
    25.5996  26.1283  26.1827  27.1135  27.2179  28.0191  28.1391  28.1715
    28.6495  28.8335  29.0154  29.0224

     occupation numbers 
     1.0000   1.0000   1.0000   1.0000   1.0000   1.0000   1.0000   1.0000
     1.0000   1.0000   1.0000   1.0000   1.0000   1.0000   1.0000   1.0000
     1.0000   1.0000   1.0000   1.0000   1.0000   1.0000   1.0000   1.0000
     1.0000   1.0000   1.0000   1.0000   1.0000   1.0000   1.0000   1.0000
     1.0000   1.0000   1.0000   1.0000   1.0000   1.0000   1.0000   1.0000
     1.0000   1.0000   1.0000   1.0000   1.0000   1.0000   1.0000   1.0000
     1.0000   1.0000   1.0000   1.0000   0.9917   0.9811   0.1035   0.0000
     0.0000   0.0000   0.0000   0.0000   0.0000   0.0000   0.0000   0.0000
     0.0000   0.0000   0.0000   0.0000   0.0000   0.0000   0.0000   0.0000
     0.0000   0.0000   0.0000   0.0000   0.0000   0.0000   0.0000   0.0000
     0.0000   0.0000   0.0000   0.0000   0.0000   0.0000   0.0000   0.0000
     0.0000   0.0000   0.0000   0.0000   0.0000   0.0000   0.0000   0.0000
     0.0000   0.0000   0.0000   0.0000

          k = 0.1250 0.1224-0.0813 (  9256 PWs)   bands (ev):

   -31.2106 -15.8316 -15.8070 -11.6648 -11.3151 -11.2938  -8.2757  -7.5655
    -7.4645  -7.2784  -7.1331  -6.6492  -6.5423  -1.1228  -1.1020  -0.9249
    -0.9164  -0.6230  -0.6127   4.7051   4.7786   4.9392   5.0514   5.0996
     5.3143   5.7277   6.1645   6.1824   6.3137   6.4318   6.6045   6.6234
     6.9137   7.0391   7.1201   7.2363   7.4603   7.4943   7.5063   7.6302
     7.9118   7.9525   8.0931   8.1078   8.1416   8.1941   8.3171   8.6147
     8.8773   9.0233   9.1706   9.3388   9.4226   9.5753   9.8228  13.0774
    13.3812  14.4496  14.6472  14.9357  15.0910  15.7031  15.9960  16.3940
    16.6346  16.7020  17.1360  17.2019  17.6886  17.9634  18.1666  18.3267
    18.4206  18.8148  19.6610  19.8622  20.4725  21.1570  22.0160  22.1909
    22.3524  22.8906  23.4166  23.9680  24.3573  24.5101  24.9335  25.2883
    25.6707  26.1514  26.2139  26.6314  27.4772  27.5278  28.0410  28.2769
    28.6981  28.8590  29.0795  29.1653

     occupation numbers 
     1.0000   1.0000   1.0000   1.0000   1.0000   1.0000   1.0000   1.0000
     1.0000   1.0000   1.0000   1.0000   1.0000   1.0000   1.0000   1.0000
     1.0000   1.0000   1.0000   1.0000   1.0000   1.0000   1.0000   1.0000
     1.0000   1.0000   1.0000   1.0000   1.0000   1.0000   1.0000   1.0000
     1.0000   1.0000   1.0000   1.0000   1.0000   1.0000   1.0000   1.0000
     1.0000   1.0000   1.0000   1.0000   1.0000   1.0000   1.0000   1.0000
     1.0000   1.0000   1.0000   1.0000   0.9993   0.9443   0.1635   0.0000
     0.0000   0.0000   0.0000   0.0000   0.0000   0.0000   0.0000   0.0000
     0.0000   0.0000   0.0000   0.0000   0.0000   0.0000   0.0000   0.0000
     0.0000   0.0000   0.0000   0.0000   0.0000   0.0000   0.0000   0.0000
     0.0000   0.0000   0.0000   0.0000   0.0000   0.0000   0.0000   0.0000
     0.0000   0.0000   0.0000   0.0000   0.0000   0.0000   0.0000   0.0000
     0.0000   0.0000   0.0000   0.0000

          k = 0.1250 0.2448 0.0000 (  9284 PWs)   bands (ev):

   -31.2065 -15.7931 -15.7703 -11.5882 -11.5098 -11.2909  -8.0192  -7.6427
    -7.3651  -7.2453  -7.1580  -6.7416  -6.6843  -1.1013  -1.0903  -0.9900
    -0.9624  -0.5789  -0.5596   4.3394   4.5860   4.8373   5.0051   5.0153
     5.1028   5.4625   5.7617   6.0651   6.1171   6.2073   6.3655   6.4989
     6.6255   6.9149   7.2165   7.2236   7.3071   7.3103   7.4021   7.6283
     7.9312   8.0165   8.1719   8.2697   8.4057   8.5020   8.6044   8.6279
     8.7835   8.8863   9.2973   9.4568   9.5852   9.8911  10.6080  13.6696
    13.7820  14.7677  15.0238  15.2776  15.3291  16.1863  16.2220  16.4093
    16.5371  16.5550  17.1285  17.3129  17.7663  17.7735  18.4777  18.6131
    18.6276  19.6452  19.9128  19.9245  19.9778  20.7281  21.8422  22.4867
    23.0142  23.0459  23.8873  24.1620  24.2960  24.5217  24.8535  25.2919
    25.9523  26.1320  26.5338  26.8336  26.9071  27.1313  27.6650  27.8734
    28.1371  28.3312  28.6665  28.6865

     occupation numbers 
     1.0000   1.0000   1.0000   1.0000   1.0000   1.0000   1.0000   1.0000
     1.0000   1.0000   1.0000   1.0000   1.0000   1.0000   1.0000   1.0000
     1.0000   1.0000   1.0000   1.0000   1.0000   1.0000   1.0000   1.0000
     1.0000   1.0000   1.0000   1.0000   1.0000   1.0000   1.0000   1.0000
     1.0000   1.0000   1.0000   1.0000   1.0000   1.0000   1.0000   1.0000
     1.0000   1.0000   1.0000   1.0000   1.0000   1.0000   1.0000   1.0000
     1.0000   1.0000   1.0000   0.9976   0.9318   0.0454   0.0000   0.0000
     0.0000   0.0000   0.0000   0.0000   0.0000   0.0000   0.0000   0.0000
     0.0000   0.0000   0.0000   0.0000   0.0000   0.0000   0.0000   0.0000
     0.0000   0.0000   0.0000   0.0000   0.0000   0.0000   0.0000   0.0000
     0.0000   0.0000   0.0000   0.0000   0.0000   0.0000   0.0000   0.0000
     0.0000   0.0000   0.0000   0.0000   0.0000   0.0000   0.0000   0.0000
     0.0000   0.0000   0.0000   0.0000

          k = 0.1250 0.2448 0.0813 (  9275 PWs)   bands (ev):

   -31.2065 -15.7935 -15.7699 -11.5883 -11.5098 -11.2909  -8.0180  -7.6441
    -7.3620  -7.2493  -7.1576  -6.7433  -6.6819  -1.1074  -1.0836  -0.9872
    -0.9652  -0.5783  -0.5612   4.3669   4.5574   4.8399   5.0033   5.0165
     5.1009   5.4229   5.8361   6.0457   6.1348   6.2099   6.3600   6.5001
     6.5913   6.8514   7.1816   7.2305   7.3238   7.3820   7.4159   7.6089
     7.9572   8.0230   8.1703   8.3226   8.4103   8.4843   8.5828   8.6533
     8.7962   8.8629   9.2385   9.4068   9.6307   9.8676  10.6440  13.6762
    13.7804  14.7754  15.0747  15.2662  15.3858  15.7868  16.1825  16.2541
    16.6667  16.8866  17.2045  17.3705  17.7737  17.8392  18.4842  18.5174
    18.7214  19.2347  19.8656  19.9832  20.3366  20.7413  21.9587  22.2412
    22.9419  23.0430  23.1727  24.0515  24.4388  24.9267  25.1265  25.4130
    25.9944  26.2212  26.3571  26.5678  27.1640  27.3463  27.7453  27.9293
    28.1895  28.3051  28.7001  28.8651

     occupation numbers 
     1.0000   1.0000   1.0000   1.0000   1.0000   1.0000   1.0000   1.0000
     1.0000   1.0000   1.0000   1.0000   1.0000   1.0000   1.0000   1.0000
     1.0000   1.0000   1.0000   1.0000   1.0000   1.0000   1.0000   1.0000
     1.0000   1.0000   1.0000   1.0000   1.0000   1.0000   1.0000   1.0000
     1.0000   1.0000   1.0000   1.0000   1.0000   1.0000   1.0000   1.0000
     1.0000   1.0000   1.0000   1.0000   1.0000   1.0000   1.0000   1.0000
     1.0000   1.0000   1.0000   0.9996   0.8452   0.0741   0.0000   0.0000
     0.0000   0.0000   0.0000   0.0000   0.0000   0.0000   0.0000   0.0000
     0.0000   0.0000   0.0000   0.0000   0.0000   0.0000   0.0000   0.0000
     0.0000   0.0000   0.0000   0.0000   0.0000   0.0000   0.0000   0.0000
     0.0000   0.0000   0.0000   0.0000   0.0000   0.0000   0.0000   0.0000
     0.0000   0.0000   0.0000   0.0000   0.0000   0.0000   0.0000   0.0000
     0.0000   0.0000   0.0000   0.0000

          k = 0.1250 0.2448-0.1626 (  9266 PWs)   bands (ev):

   -31.2065 -15.7939 -15.7694 -11.5884 -11.5097 -11.2909  -8.0168  -7.6454
    -7.3587  -7.2534  -7.1572  -6.7450  -6.6796  -1.1113  -1.0789  -0.9845
    -0.9680  -0.5775  -0.5629   4.4077   4.5155   4.8423   5.0018   5.0171
     5.0998   5.3919   5.9135   6.0224   6.1515   6.2126   6.3546   6.5137
     6.5307   6.8073   7.1628   7.2275   7.3381   7.4257   7.4509   7.5797
     7.9913   8.0135   8.1798   8.3668   8.4564   8.4621   8.5490   8.6736
     8.8081   8.8291   9.1751   9.3690   9.6721   9.8411  10.6769  13.6829
    13.7786  14.7821  15.1577  15.3316  15.3454  15.5787  16.0624  16.1509
    16.8102  17.0395  17.2730  17.4012  17.8021  17.9483  18.4698  18.4779
    18.8212  18.9003  19.8473  20.0202  20.4022  21.1554  21.5145  22.2602
    22.6719  23.0292  23.0674  24.0724  24.3751  25.0794  25.3133  25.5252
    25.8797  26.0381  26.3205  27.0388  27.2329  27.3463  27.9062  27.9541
    28.2996  28.3236  28.7523  29.0154

     occupation numbers 
     1.0000   1.0000   1.0000   1.0000   1.0000   1.0000   1.0000   1.0000
     1.0000   1.0000   1.0000   1.0000   1.0000   1.0000   1.0000   1.0000
     1.0000   1.0000   1.0000   1.0000   1.0000   1.0000   1.0000   1.0000
     1.0000   1.0000   1.0000   1.0000   1.0000   1.0000   1.0000   1.0000
     1.0000   1.0000   1.0000   1.0000   1.0000   1.0000   1.0000   1.0000
     1.0000   1.0000   1.0000   1.0000   1.0000   1.0000   1.0000   1.0000
     1.0000   1.0000   1.0000   0.9999   0.7212   0.1209   0.0000   0.0000
     0.0000   0.0000   0.0000   0.0000   0.0000   0.0000   0.0000   0.0000
     0.0000   0.0000   0.0000   0.0000   0.0000   0.0000   0.0000   0.0000
     0.0000   0.0000   0.0000   0.0000   0.0000   0.0000   0.0000   0.0000
     0.0000   0.0000   0.0000   0.0000   0.0000   0.0000   0.0000   0.0000
     0.0000   0.0000   0.0000   0.0000   0.0000   0.0000   0.0000   0.0000
     0.0000   0.0000   0.0000   0.0000

          k = 0.1250 0.2448-0.0813 (  9275 PWs)   bands (ev):

   -31.2065 -15.7935 -15.7699 -11.5883 -11.5098 -11.2909  -8.0180  -7.6441
    -7.3620  -7.2493  -7.1576  -6.7433  -6.6819  -1.1074  -1.0836  -0.9872
    -0.9652  -0.5783  -0.5612   4.3669   4.5574   4.8399   5.0033   5.0165
     5.1009   5.4229   5.8361   6.0457   6.1348   6.2099   6.3600   6.5001
     6.5913   6.8514   7.1816   7.2305   7.3238   7.3820   7.4159   7.6089
     7.9572   8.0230   8.1703   8.3226   8.4103   8.4843   8.5828   8.6533
     8.7962   8.8629   9.2385   9.4068   9.6307   9.8676  10.6440  13.6762
    13.7804  14.7754  15.0747  15.2662  15.3858  15.7868  16.1825  16.2541
    16.6667  16.8866  17.2045  17.3705  17.7737  17.8392  18.4842  18.5174
    18.7214  19.2347  19.8656  19.9832  20.3366  20.7413  21.9587  22.2412
    22.9419  23.0430  23.1727  24.0515  24.4388  24.9267  25.1265  25.4130
    25.9944  26.2212  26.3571  26.5678  27.1640  27.3463  27.7453  27.9293
    28.1895  28.3051  28.7001  28.8651

     occupation numbers 
     1.0000   1.0000   1.0000   1.0000   1.0000   1.0000   1.0000   1.0000
     1.0000   1.0000   1.0000   1.0000   1.0000   1.0000   1.0000   1.0000
     1.0000   1.0000   1.0000   1.0000   1.0000   1.0000   1.0000   1.0000
     1.0000   1.0000   1.0000   1.0000   1.0000   1.0000   1.0000   1.0000
     1.0000   1.0000   1.0000   1.0000   1.0000   1.0000   1.0000   1.0000
     1.0000   1.0000   1.0000   1.0000   1.0000   1.0000   1.0000   1.0000
     1.0000   1.0000   1.0000   0.9996   0.8452   0.0741   0.0000   0.0000
     0.0000   0.0000   0.0000   0.0000   0.0000   0.0000   0.0000   0.0000
     0.0000   0.0000   0.0000   0.0000   0.0000   0.0000   0.0000   0.0000
     0.0000   0.0000   0.0000   0.0000   0.0000   0.0000   0.0000   0.0000
     0.0000   0.0000   0.0000   0.0000   0.0000   0.0000   0.0000   0.0000
     0.0000   0.0000   0.0000   0.0000   0.0000   0.0000   0.0000   0.0000
     0.0000   0.0000   0.0000   0.0000

          k = 0.1250 0.3672 0.0000 (  9272 PWs)   bands (ev):

   -31.2025 -15.7543 -15.7324 -11.6861 -11.5067 -11.2834  -7.7663  -7.7434
    -7.3224  -7.1672  -7.1423  -6.8502  -6.8368  -1.0818  -1.0485  -0.9838
    -0.9339  -0.6106  -0.6042   3.9823   4.2662   4.3085   4.9776   5.0877
     5.1571   5.5040   5.5369   5.7645   5.7715   6.2006   6.3283   6.4109
     6.4270   6.6857   7.1062   7.1734   7.2443   7.2550   7.5029   7.6195
     7.9138   8.0934   8.3014   8.3205   8.4232   8.7190   8.7263   8.8148
     8.9211   9.0578   9.1946   9.4428   9.6867   9.9886  11.1874  13.9809
    14.4340  14.6241  15.1488  15.8240  15.9184  16.1555  16.4033  16.8125
    16.8269  17.1410  17.1584  17.5413  17.5948  18.0121  18.5410  18.6335
    19.1203  19.4636  19.9202  20.2912  20.4816  21.0075  21.5807  22.3760
    22.9752  23.3590  23.6509  24.1670  24.3981  24.4793  24.6448  25.2145
    25.7418  26.0427  26.1707  26.5692  26.6508  26.9034  27.1195  27.3396
    27.7194  28.3178  28.5386  28.6477

     occupation numbers 
     1.0000   1.0000   1.0000   1.0000   1.0000   1.0000   1.0000   1.0000
     1.0000   1.0000   1.0000   1.0000   1.0000   1.0000   1.0000   1.0000
     1.0000   1.0000   1.0000   1.0000   1.0000   1.0000   1.0000   1.0000
     1.0000   1.0000   1.0000   1.0000   1.0000   1.0000   1.0000   1.0000
     1.0000   1.0000   1.0000   1.0000   1.0000   1.0000   1.0000   1.0000
     1.0000   1.0000   1.0000   1.0000   1.0000   1.0000   1.0000   1.0000
     1.0000   1.0000   1.0000   0.9985   0.6680   0.0034   0.0000   0.0000
     0.0000   0.0000   0.0000   0.0000   0.0000   0.0000   0.0000   0.0000
     0.0000   0.0000   0.0000   0.0000   0.0000   0.0000   0.0000   0.0000
     0.0000   0.0000   0.0000   0.0000   0.0000   0.0000   0.0000   0.0000
     0.0000   0.0000   0.0000   0.0000   0.0000   0.0000   0.0000   0.0000
     0.0000   0.0000   0.0000   0.0000   0.0000   0.0000   0.0000   0.0000
     0.0000   0.0000   0.0000   0.0000

          k = 0.1250 0.3672 0.0813 (  9285 PWs)   bands (ev):

   -31.2025 -15.7547 -15.7321 -11.6861 -11.5067 -11.2834  -7.7684  -7.7417
    -7.3071  -7.1906  -7.1376  -6.8529  -6.8302  -1.0864  -1.0416  -0.9825
    -0.9368  -0.6100  -0.6057   4.0114   4.2056   4.3389   4.9858   5.0597
     5.1796   5.4141   5.6292   5.7249   5.8551   6.1994   6.3229   6.3643
     6.4366   6.6361   7.0608   7.1946   7.2399   7.3133   7.5119   7.6006
     7.9498   8.1361   8.3164   8.3215   8.4490   8.7061   8.7319   8.8027
     8.8976   9.0576   9.1232   9.4309   9.7015   9.9674  11.2305  14.0393
    14.3973  14.6319  15.0993  15.7169  15.8957  16.1461  16.4652  16.6619
    16.8940  17.1747  17.2464  17.6022  17.7854  17.9710  18.4796  18.6350
    19.1972  19.4573  19.8080  20.2944  20.6528  20.6828  22.0123  22.0530
    22.9677  23.2947  23.5259  23.6261  24.3834  24.4633  25.0262  25.6113
    25.7960  25.9516  26.2760  26.6082  26.7013  27.0411  27.1491  27.3864
    27.7309  28.2648  28.4389  28.5988

     occupation numbers 
     1.0000   1.0000   1.0000   1.0000   1.0000   1.0000   1.0000   1.0000
     1.0000   1.0000   1.0000   1.0000   1.0000   1.0000   1.0000   1.0000
     1.0000   1.0000   1.0000   1.0000   1.0000   1.0000   1.0000   1.0000
     1.0000   1.0000   1.0000   1.0000   1.0000   1.0000   1.0000   1.0000
     1.0000   1.0000   1.0000   1.0000   1.0000   1.0000   1.0000   1.0000
     1.0000   1.0000   1.0000   1.0000   1.0000   1.0000   1.0000   1.0000
     1.0000   1.0000   1.0000   0.9990   0.6104   0.0065   0.0000   0.0000
     0.0000   0.0000   0.0000   0.0000   0.0000   0.0000   0.0000   0.0000
     0.0000   0.0000   0.0000   0.0000   0.0000   0.0000   0.0000   0.0000
     0.0000   0.0000   0.0000   0.0000   0.0000   0.0000   0.0000   0.0000
     0.0000   0.0000   0.0000   0.0000   0.0000   0.0000   0.0000   0.0000
     0.0000   0.0000   0.0000   0.0000   0.0000   0.0000   0.0000   0.0000
     0.0000   0.0000   0.0000   0.0000

          k = 0.1250 0.3672-0.1626 (  9292 PWs)   bands (ev):

   -31.2025 -15.7551 -15.7317 -11.6861 -11.5068 -11.2834  -7.7704  -7.7402
    -7.2854  -7.2167  -7.1365  -6.8540  -6.8253  -1.0901  -1.0356  -0.9812
    -0.9400  -0.6086  -0.6079   4.0619   4.1395   4.3534   5.0020   5.0294
     5.1996   5.3679   5.6732   5.7094   5.9329   6.2016   6.2943   6.3193
     6.4411   6.5985   7.0314   7.2197   7.2223   7.3638   7.5243   7.5749
     7.9874   8.1779   8.3084   8.3221   8.5474   8.6977   8.7317   8.7605
     8.8501   9.0236   9.0884   9.4222   9.7171   9.9474  11.2711  14.1266
    14.3294  14.6410  15.0527  15.6130  15.8851  16.2127  16.3974  16.5735
    17.0428  17.0839  17.4292  17.6130  17.9073  17.9721  18.4857  18.5702
    19.3205  19.4387  19.6708  20.3080  20.4433  21.1605  21.3226  22.6380
    22.6446  23.0870  23.5625  23.5820  24.3408  24.4631  25.0899  25.5798
    25.6585  26.2578  26.3575  26.6064  26.9782  27.0217  27.3637  27.6750
    27.7543  27.9177  28.3824  28.5229

     occupation numbers 
     1.0000   1.0000   1.0000   1.0000   1.0000   1.0000   1.0000   1.0000
     1.0000   1.0000   1.0000   1.0000   1.0000   1.0000   1.0000   1.0000
     1.0000   1.0000   1.0000   1.0000   1.0000   1.0000   1.0000   1.0000
     1.0000   1.0000   1.0000   1.0000   1.0000   1.0000   1.0000   1.0000
     1.0000   1.0000   1.0000   1.0000   1.0000   1.0000   1.0000   1.0000
     1.0000   1.0000   1.0000   1.0000   1.0000   1.0000   1.0000   1.0000
     1.0000   1.0000   1.0000   0.9993   0.5469   0.0114   0.0000   0.0000
     0.0000   0.0000   0.0000   0.0000   0.0000   0.0000   0.0000   0.0000
     0.0000   0.0000   0.0000   0.0000   0.0000   0.0000   0.0000   0.0000
     0.0000   0.0000   0.0000   0.0000   0.0000   0.0000   0.0000   0.0000
     0.0000   0.0000   0.0000   0.0000   0.0000   0.0000   0.0000   0.0000
     0.0000   0.0000   0.0000   0.0000   0.0000   0.0000   0.0000   0.0000
     0.0000   0.0000   0.0000   0.0000

          k = 0.1250 0.3672-0.0813 (  9285 PWs)   bands (ev):

   -31.2025 -15.7547 -15.7321 -11.6861 -11.5067 -11.2834  -7.7684  -7.7417
    -7.3071  -7.1906  -7.1376  -6.8529  -6.8302  -1.0864  -1.0416  -0.9825
    -0.9368  -0.6100  -0.6057   4.0114   4.2056   4.3389   4.9858   5.0597
     5.1796   5.4141   5.6292   5.7249   5.8551   6.1994   6.3229   6.3643
     6.4366   6.6361   7.0608   7.1946   7.2399   7.3133   7.5119   7.6006
     7.9498   8.1361   8.3164   8.3215   8.4490   8.7061   8.7319   8.8027
     8.8976   9.0576   9.1232   9.4309   9.7015   9.9674  11.2305  14.0393
    14.3973  14.6319  15.0993  15.7169  15.8957  16.1461  16.4652  16.6619
    16.8940  17.1747  17.2464  17.6022  17.7854  17.9710  18.4796  18.6350
    19.1972  19.4573  19.8080  20.2944  20.6528  20.6828  22.0123  22.0530
    22.9677  23.2947  23.5259  23.6261  24.3834  24.4633  25.0262  25.6113
    25.7960  25.9516  26.2760  26.6082  26.7013  27.0411  27.1491  27.3864
    27.7309  28.2648  28.4389  28.5988

     occupation numbers 
     1.0000   1.0000   1.0000   1.0000   1.0000   1.0000   1.0000   1.0000
     1.0000   1.0000   1.0000   1.0000   1.0000   1.0000   1.0000   1.0000
     1.0000   1.0000   1.0000   1.0000   1.0000   1.0000   1.0000   1.0000
     1.0000   1.0000   1.0000   1.0000   1.0000   1.0000   1.0000   1.0000
     1.0000   1.0000   1.0000   1.0000   1.0000   1.0000   1.0000   1.0000
     1.0000   1.0000   1.0000   1.0000   1.0000   1.0000   1.0000   1.0000
     1.0000   1.0000   1.0000   0.9990   0.6104   0.0065   0.0000   0.0000
     0.0000   0.0000   0.0000   0.0000   0.0000   0.0000   0.0000   0.0000
     0.0000   0.0000   0.0000   0.0000   0.0000   0.0000   0.0000   0.0000
     0.0000   0.0000   0.0000   0.0000   0.0000   0.0000   0.0000   0.0000
     0.0000   0.0000   0.0000   0.0000   0.0000   0.0000   0.0000   0.0000
     0.0000   0.0000   0.0000   0.0000   0.0000   0.0000   0.0000   0.0000
     0.0000   0.0000   0.0000   0.0000

          k = 0.1250-0.4896 0.0000 (  9284 PWs)   bands (ev):

   -31.2008 -15.7380 -15.7165 -11.7540 -11.4712 -11.2803  -7.8258  -7.5897
    -7.3766  -7.1285  -7.0281  -6.9979  -6.8764  -1.0581  -1.0278  -0.9622
    -0.9025  -0.6577  -0.6466   3.8308   4.0636   4.1851   4.9651   5.1022
     5.3133   5.3662   5.5295   5.6257   5.6270   6.2664   6.2737   6.3254
     6.4422   6.5779   7.0765   7.0875   7.2095   7.2477   7.6066   7.6140
     7.9643   8.0199   8.3020   8.3775   8.4101   8.7309   8.8017   8.9183
     9.0304   9.1503   9.1870   9.4371   9.6895   9.9757  11.3775  14.2082
    14.3916  14.5294  15.6653  15.7210  16.0838  16.2306  16.5154  16.9245
    17.0618  17.3075  17.3647  17.4614  17.6801  18.1656  18.5067  18.7025
    19.3189  19.4654  19.9928  21.1034  21.1628  21.1926  21.4127  22.1256
    22.2437  22.3387  23.2816  24.2475  24.3264  24.4927  24.8988  25.0380
    25.4042  25.9944  26.2747  26.3924  26.4496  27.0906  27.3875  27.4824
    27.5340  28.0672  28.3498  28.5931

     occupation numbers 
     1.0000   1.0000   1.0000   1.0000   1.0000   1.0000   1.0000   1.0000
     1.0000   1.0000   1.0000   1.0000   1.0000   1.0000   1.0000   1.0000
     1.0000   1.0000   1.0000   1.0000   1.0000   1.0000   1.0000   1.0000
     1.0000   1.0000   1.0000   1.0000   1.0000   1.0000   1.0000   1.0000
     1.0000   1.0000   1.0000   1.0000   1.0000   1.0000   1.0000   1.0000
     1.0000   1.0000   1.0000   1.0000   1.0000   1.0000   1.0000   1.0000
     1.0000   1.0000   1.0000   0.9988   0.6572   0.0051   0.0000   0.0000
     0.0000   0.0000   0.0000   0.0000   0.0000   0.0000   0.0000   0.0000
     0.0000   0.0000   0.0000   0.0000   0.0000   0.0000   0.0000   0.0000
     0.0000   0.0000   0.0000   0.0000   0.0000   0.0000   0.0000   0.0000
     0.0000   0.0000   0.0000   0.0000   0.0000   0.0000   0.0000   0.0000
     0.0000   0.0000   0.0000   0.0000   0.0000   0.0000   0.0000   0.0000
     0.0000   0.0000   0.0000   0.0000

          k = 0.1250-0.4896 0.0813 (  9294 PWs)   bands (ev):

   -31.2008 -15.7384 -15.7162 -11.7540 -11.4712 -11.2803  -7.8282  -7.5879
    -7.3642  -7.1353  -7.0516  -6.9929  -6.8629  -1.0655  -1.0193  -0.9615
    -0.9031  -0.6599  -0.6457   3.8599   4.0202   4.1978   4.9733   5.0777
     5.3127   5.3859   5.4978   5.5560   5.7793   6.2514   6.2809   6.2848
     6.4414   6.5464   7.0179   7.0906   7.2248   7.3035   7.5956   7.6048
     8.0188   8.0394   8.3746   8.3827   8.3979   8.7262   8.8028   8.9054
     9.0181   9.0294   9.1998   9.4366   9.6989   9.9585  11.4248  14.2209
    14.4875  14.5142  15.4177  15.6415  16.1768  16.1974  16.7114  16.7381
    17.0515  17.1749  17.5260  17.6878  17.7860  18.0598  18.5276  18.6713
    19.3251  19.5460  20.1354  20.7419  21.0599  21.2860  21.4234  22.0189
    22.2267  22.6128  23.2726  23.3845  24.4165  24.4853  25.0499  25.2974
    25.9780  25.9971  26.1276  26.3987  26.6566  26.8702  27.3829  27.5558
    27.6031  28.1010  28.2472  28.7948

     occupation numbers 
     1.0000   1.0000   1.0000   1.0000   1.0000   1.0000   1.0000   1.0000
     1.0000   1.0000   1.0000   1.0000   1.0000   1.0000   1.0000   1.0000
     1.0000   1.0000   1.0000   1.0000   1.0000   1.0000   1.0000   1.0000
     1.0000   1.0000   1.0000   1.0000   1.0000   1.0000   1.0000   1.0000
     1.0000   1.0000   1.0000   1.0000   1.0000   1.0000   1.0000   1.0000
     1.0000   1.0000   1.0000   1.0000   1.0000   1.0000   1.0000   1.0000
     1.0000   1.0000   1.0000   0.9988   0.6206   0.0084   0.0000   0.0000
     0.0000   0.0000   0.0000   0.0000   0.0000   0.0000   0.0000   0.0000
     0.0000   0.0000   0.0000   0.0000   0.0000   0.0000   0.0000   0.0000
     0.0000   0.0000   0.0000   0.0000   0.0000   0.0000   0.0000   0.0000
     0.0000   0.0000   0.0000   0.0000   0.0000   0.0000   0.0000   0.0000
     0.0000   0.0000   0.0000   0.0000   0.0000   0.0000   0.0000   0.0000
     0.0000   0.0000   0.0000   0.0000

          k = 0.1250-0.4896-0.1626 (  9292 PWs)   bands (ev):

   -31.2008 -15.7387 -15.7158 -11.7540 -11.4713 -11.2803  -7.8306  -7.5860
    -7.3506  -7.1416  -7.0739  -6.9883  -6.8518  -1.0709  -1.0128  -0.9609
    -0.9038  -0.6620  -0.6449   3.9294   3.9400   4.2069   4.9858   5.0512
     5.3148   5.4037   5.4575   5.5584   5.8878   6.2138   6.2395   6.2845
     6.4415   6.5252   6.9781   7.0924   7.2288   7.3556   7.5731   7.6031
     8.0548   8.0843   8.3357   8.3791   8.5816   8.7219   8.7898   8.8037
     8.9277   9.0075   9.2110   9.4362   9.7084   9.9431  11.4696  14.2350
    14.4976  14.6452  15.1192  15.6214  16.1664  16.3527  16.4764  16.8137
    17.0683  17.2233  17.6717  17.6955  17.8672  18.0143  18.5468  18.6473
    19.3314  19.6602  20.4806  20.5808  20.5987  21.3027  21.4334  22.0033
    22.0790  22.8857  23.0530  23.2632  24.4766  24.4827  25.0969  25.1549
    25.8228  25.9537  26.4403  26.5458  26.6946  27.3599  27.5605  27.6551
    27.8576  27.9754  28.1656  28.1722

     occupation numbers 
     1.0000   1.0000   1.0000   1.0000   1.0000   1.0000   1.0000   1.0000
     1.0000   1.0000   1.0000   1.0000   1.0000   1.0000   1.0000   1.0000
     1.0000   1.0000   1.0000   1.0000   1.0000   1.0000   1.0000   1.0000
     1.0000   1.0000   1.0000   1.0000   1.0000   1.0000   1.0000   1.0000
     1.0000   1.0000   1.0000   1.0000   1.0000   1.0000   1.0000   1.0000
     1.0000   1.0000   1.0000   1.0000   1.0000   1.0000   1.0000   1.0000
     1.0000   1.0000   1.0000   0.9988   0.5827   0.0129   0.0000   0.0000
     0.0000   0.0000   0.0000   0.0000   0.0000   0.0000   0.0000   0.0000
     0.0000   0.0000   0.0000   0.0000   0.0000   0.0000   0.0000   0.0000
     0.0000   0.0000   0.0000   0.0000   0.0000   0.0000   0.0000   0.0000
     0.0000   0.0000   0.0000   0.0000   0.0000   0.0000   0.0000   0.0000
     0.0000   0.0000   0.0000   0.0000   0.0000   0.0000   0.0000   0.0000
     0.0000   0.0000   0.0000   0.0000

          k = 0.1250-0.4896-0.0813 (  9294 PWs)   bands (ev):

   -31.2008 -15.7384 -15.7162 -11.7540 -11.4712 -11.2803  -7.8282  -7.5879
    -7.3642  -7.1353  -7.0516  -6.9929  -6.8629  -1.0655  -1.0193  -0.9615
    -0.9031  -0.6599  -0.6457   3.8599   4.0202   4.1978   4.9733   5.0777
     5.3127   5.3859   5.4978   5.5560   5.7793   6.2514   6.2809   6.2848
     6.4414   6.5464   7.0179   7.0906   7.2248   7.3035   7.5956   7.6048
     8.0188   8.0394   8.3746   8.3827   8.3979   8.7262   8.8028   8.9054
     9.0181   9.0294   9.1998   9.4366   9.6989   9.9585  11.4248  14.2209
    14.4875  14.5142  15.4177  15.6415  16.1768  16.1974  16.7114  16.7381
    17.0515  17.1749  17.5260  17.6878  17.7860  18.0598  18.5276  18.6713
    19.3251  19.5460  20.1354  20.7419  21.0599  21.2860  21.4234  22.0189
    22.2267  22.6128  23.2726  23.3845  24.4165  24.4853  25.0499  25.2974
    25.9780  25.9971  26.1276  26.3987  26.6566  26.8702  27.3829  27.5558
    27.6031  28.1010  28.2472  28.7948

     occupation numbers 
     1.0000   1.0000   1.0000   1.0000   1.0000   1.0000   1.0000   1.0000
     1.0000   1.0000   1.0000   1.0000   1.0000   1.0000   1.0000   1.0000
     1.0000   1.0000   1.0000   1.0000   1.0000   1.0000   1.0000   1.0000
     1.0000   1.0000   1.0000   1.0000   1.0000   1.0000   1.0000   1.0000
     1.0000   1.0000   1.0000   1.0000   1.0000   1.0000   1.0000   1.0000
     1.0000   1.0000   1.0000   1.0000   1.0000   1.0000   1.0000   1.0000
     1.0000   1.0000   1.0000   0.9988   0.6206   0.0084   0.0000   0.0000
     0.0000   0.0000   0.0000   0.0000   0.0000   0.0000   0.0000   0.0000
     0.0000   0.0000   0.0000   0.0000   0.0000   0.0000   0.0000   0.0000
     0.0000   0.0000   0.0000   0.0000   0.0000   0.0000   0.0000   0.0000
     0.0000   0.0000   0.0000   0.0000   0.0000   0.0000   0.0000   0.0000
     0.0000   0.0000   0.0000   0.0000   0.0000   0.0000   0.0000   0.0000
     0.0000   0.0000   0.0000   0.0000

          k = 0.1250-0.3672 0.0000 (  9272 PWs)   bands (ev):

   -31.2025 -15.7543 -15.7324 -11.6861 -11.5067 -11.2834  -7.7663  -7.7434
    -7.3224  -7.1672  -7.1423  -6.8502  -6.8368  -1.0818  -1.0485  -0.9838
    -0.9339  -0.6106  -0.6042   3.9823   4.2662   4.3085   4.9776   5.0877
     5.1571   5.5040   5.5369   5.7645   5.7715   6.2006   6.3283   6.4109
     6.4270   6.6857   7.1062   7.1734   7.2443   7.2550   7.5029   7.6195
     7.9138   8.0934   8.3014   8.3205   8.4232   8.7190   8.7263   8.8148
     8.9211   9.0578   9.1946   9.4428   9.6867   9.9886  11.1874  13.9809
    14.4340  14.6241  15.1488  15.8240  15.9184  16.1555  16.4033  16.8125
    16.8269  17.1410  17.1584  17.5413  17.5948  18.0121  18.5410  18.6335
    19.1203  19.4636  19.9202  20.2912  20.4816  21.0075  21.5807  22.3760
    22.9752  23.3590  23.6509  24.1670  24.3981  24.4793  24.6448  25.2145
    25.7418  26.0427  26.1707  26.5692  26.6508  26.9034  27.1195  27.3396
    27.7194  28.3178  28.5386  28.6477

     occupation numbers 
     1.0000   1.0000   1.0000   1.0000   1.0000   1.0000   1.0000   1.0000
     1.0000   1.0000   1.0000   1.0000   1.0000   1.0000   1.0000   1.0000
     1.0000   1.0000   1.0000   1.0000   1.0000   1.0000   1.0000   1.0000
     1.0000   1.0000   1.0000   1.0000   1.0000   1.0000   1.0000   1.0000
     1.0000   1.0000   1.0000   1.0000   1.0000   1.0000   1.0000   1.0000
     1.0000   1.0000   1.0000   1.0000   1.0000   1.0000   1.0000   1.0000
     1.0000   1.0000   1.0000   0.9985   0.6680   0.0034   0.0000   0.0000
     0.0000   0.0000   0.0000   0.0000   0.0000   0.0000   0.0000   0.0000
     0.0000   0.0000   0.0000   0.0000   0.0000   0.0000   0.0000   0.0000
     0.0000   0.0000   0.0000   0.0000   0.0000   0.0000   0.0000   0.0000
     0.0000   0.0000   0.0000   0.0000   0.0000   0.0000   0.0000   0.0000
     0.0000   0.0000   0.0000   0.0000   0.0000   0.0000   0.0000   0.0000
     0.0000   0.0000   0.0000   0.0000

          k = 0.1250-0.3672 0.0813 (  9285 PWs)   bands (ev):

   -31.2025 -15.7547 -15.7321 -11.6861 -11.5067 -11.2834  -7.7684  -7.7417
    -7.3071  -7.1906  -7.1376  -6.8529  -6.8302  -1.0864  -1.0416  -0.9825
    -0.9368  -0.6100  -0.6057   4.0114   4.2056   4.3389   4.9858   5.0597
     5.1796   5.4141   5.6292   5.7249   5.8551   6.1994   6.3229   6.3643
     6.4366   6.6361   7.0608   7.1946   7.2399   7.3133   7.5119   7.6006
     7.9498   8.1361   8.3164   8.3215   8.4490   8.7061   8.7319   8.8027
     8.8976   9.0576   9.1232   9.4309   9.7015   9.9674  11.2305  14.0393
    14.3973  14.6319  15.0993  15.7169  15.8957  16.1461  16.4652  16.6619
    16.8940  17.1747  17.2464  17.6022  17.7854  17.9710  18.4796  18.6350
    19.1972  19.4573  19.8080  20.2944  20.6528  20.6828  22.0123  22.0530
    22.9677  23.2947  23.5259  23.6261  24.3834  24.4633  25.0262  25.6113
    25.7960  25.9516  26.2760  26.6082  26.7013  27.0411  27.1491  27.3864
    27.7309  28.2648  28.4389  28.5988

     occupation numbers 
     1.0000   1.0000   1.0000   1.0000   1.0000   1.0000   1.0000   1.0000
     1.0000   1.0000   1.0000   1.0000   1.0000   1.0000   1.0000   1.0000
     1.0000   1.0000   1.0000   1.0000   1.0000   1.0000   1.0000   1.0000
     1.0000   1.0000   1.0000   1.0000   1.0000   1.0000   1.0000   1.0000
     1.0000   1.0000   1.0000   1.0000   1.0000   1.0000   1.0000   1.0000
     1.0000   1.0000   1.0000   1.0000   1.0000   1.0000   1.0000   1.0000
     1.0000   1.0000   1.0000   0.9990   0.6104   0.0065   0.0000   0.0000
     0.0000   0.0000   0.0000   0.0000   0.0000   0.0000   0.0000   0.0000
     0.0000   0.0000   0.0000   0.0000   0.0000   0.0000   0.0000   0.0000
     0.0000   0.0000   0.0000   0.0000   0.0000   0.0000   0.0000   0.0000
     0.0000   0.0000   0.0000   0.0000   0.0000   0.0000   0.0000   0.0000
     0.0000   0.0000   0.0000   0.0000   0.0000   0.0000   0.0000   0.0000
     0.0000   0.0000   0.0000   0.0000

          k = 0.1250-0.3672-0.1626 (  9292 PWs)   bands (ev):

   -31.2025 -15.7551 -15.7317 -11.6861 -11.5068 -11.2834  -7.7704  -7.7402
    -7.2854  -7.2167  -7.1365  -6.8540  -6.8253  -1.0901  -1.0356  -0.9812
    -0.9400  -0.6086  -0.6079   4.0619   4.1395   4.3534   5.0020   5.0294
     5.1996   5.3679   5.6732   5.7094   5.9329   6.2016   6.2943   6.3193
     6.4411   6.5985   7.0314   7.2197   7.2223   7.3638   7.5243   7.5749
     7.9874   8.1779   8.3084   8.3221   8.5474   8.6977   8.7317   8.7605
     8.8501   9.0236   9.0884   9.4222   9.7171   9.9474  11.2711  14.1266
    14.3294  14.6410  15.0527  15.6130  15.8851  16.2127  16.3974  16.5735
    17.0428  17.0839  17.4292  17.6130  17.9073  17.9721  18.4857  18.5702
    19.3205  19.4387  19.6708  20.3080  20.4433  21.1605  21.3226  22.6380
    22.6446  23.0870  23.5625  23.5820  24.3408  24.4631  25.0899  25.5798
    25.6585  26.2578  26.3575  26.6064  26.9782  27.0217  27.3637  27.6750
    27.7543  27.9177  28.3824  28.5229

     occupation numbers 
     1.0000   1.0000   1.0000   1.0000   1.0000   1.0000   1.0000   1.0000
     1.0000   1.0000   1.0000   1.0000   1.0000   1.0000   1.0000   1.0000
     1.0000   1.0000   1.0000   1.0000   1.0000   1.0000   1.0000   1.0000
     1.0000   1.0000   1.0000   1.0000   1.0000   1.0000   1.0000   1.0000
     1.0000   1.0000   1.0000   1.0000   1.0000   1.0000   1.0000   1.0000
     1.0000   1.0000   1.0000   1.0000   1.0000   1.0000   1.0000   1.0000
     1.0000   1.0000   1.0000   0.9993   0.5469   0.0114   0.0000   0.0000
     0.0000   0.0000   0.0000   0.0000   0.0000   0.0000   0.0000   0.0000
     0.0000   0.0000   0.0000   0.0000   0.0000   0.0000   0.0000   0.0000
     0.0000   0.0000   0.0000   0.0000   0.0000   0.0000   0.0000   0.0000
     0.0000   0.0000   0.0000   0.0000   0.0000   0.0000   0.0000   0.0000
     0.0000   0.0000   0.0000   0.0000   0.0000   0.0000   0.0000   0.0000
     0.0000   0.0000   0.0000   0.0000

          k = 0.1250-0.3672-0.0813 (  9285 PWs)   bands (ev):

   -31.2025 -15.7547 -15.7321 -11.6861 -11.5067 -11.2834  -7.7684  -7.7417
    -7.3071  -7.1906  -7.1376  -6.8529  -6.8302  -1.0864  -1.0416  -0.9825
    -0.9368  -0.6100  -0.6057   4.0114   4.2056   4.3389   4.9858   5.0597
     5.1796   5.4141   5.6292   5.7249   5.8551   6.1994   6.3229   6.3643
     6.4366   6.6361   7.0608   7.1946   7.2399   7.3133   7.5119   7.6006
     7.9498   8.1361   8.3164   8.3215   8.4490   8.7061   8.7319   8.8027
     8.8976   9.0576   9.1232   9.4309   9.7015   9.9674  11.2305  14.0393
    14.3973  14.6319  15.0993  15.7169  15.8957  16.1461  16.4652  16.6619
    16.8940  17.1747  17.2464  17.6022  17.7854  17.9710  18.4796  18.6350
    19.1972  19.4573  19.8080  20.2944  20.6528  20.6828  22.0123  22.0530
    22.9677  23.2947  23.5259  23.6261  24.3834  24.4633  25.0262  25.6113
    25.7960  25.9516  26.2760  26.6082  26.7013  27.0411  27.1491  27.3864
    27.7309  28.2648  28.4389  28.5988

     occupation numbers 
     1.0000   1.0000   1.0000   1.0000   1.0000   1.0000   1.0000   1.0000
     1.0000   1.0000   1.0000   1.0000   1.0000   1.0000   1.0000   1.0000
     1.0000   1.0000   1.0000   1.0000   1.0000   1.0000   1.0000   1.0000
     1.0000   1.0000   1.0000   1.0000   1.0000   1.0000   1.0000   1.0000
     1.0000   1.0000   1.0000   1.0000   1.0000   1.0000   1.0000   1.0000
     1.0000   1.0000   1.0000   1.0000   1.0000   1.0000   1.0000   1.0000
     1.0000   1.0000   1.0000   0.9990   0.6104   0.0065   0.0000   0.0000
     0.0000   0.0000   0.0000   0.0000   0.0000   0.0000   0.0000   0.0000
     0.0000   0.0000   0.0000   0.0000   0.0000   0.0000   0.0000   0.0000
     0.0000   0.0000   0.0000   0.0000   0.0000   0.0000   0.0000   0.0000
     0.0000   0.0000   0.0000   0.0000   0.0000   0.0000   0.0000   0.0000
     0.0000   0.0000   0.0000   0.0000   0.0000   0.0000   0.0000   0.0000
     0.0000   0.0000   0.0000   0.0000

          k = 0.1250-0.2448 0.0000 (  9284 PWs)   bands (ev):

   -31.2065 -15.7931 -15.7703 -11.5882 -11.5098 -11.2909  -8.0192  -7.6427
    -7.3651  -7.2453  -7.1580  -6.7416  -6.6843  -1.1013  -1.0903  -0.9900
    -0.9624  -0.5789  -0.5596   4.3394   4.5860   4.8373   5.0051   5.0153
     5.1028   5.4625   5.7617   6.0651   6.1171   6.2073   6.3655   6.4989
     6.6255   6.9149   7.2165   7.2236   7.3071   7.3103   7.4021   7.6283
     7.9312   8.0165   8.1719   8.2697   8.4057   8.5020   8.6044   8.6279
     8.7835   8.8863   9.2973   9.4568   9.5852   9.8911  10.6080  13.6696
    13.7820  14.7677  15.0238  15.2776  15.3291  16.1863  16.2220  16.4093
    16.5371  16.5550  17.1285  17.3129  17.7663  17.7735  18.4777  18.6131
    18.6276  19.6452  19.9128  19.9245  19.9778  20.7281  21.8422  22.4867
    23.0142  23.0459  23.8873  24.1620  24.2960  24.5217  24.8535  25.2919
    25.9523  26.1320  26.5338  26.8336  26.9071  27.1313  27.6650  27.8734
    28.1371  28.3312  28.6665  28.6865

     occupation numbers 
     1.0000   1.0000   1.0000   1.0000   1.0000   1.0000   1.0000   1.0000
     1.0000   1.0000   1.0000   1.0000   1.0000   1.0000   1.0000   1.0000
     1.0000   1.0000   1.0000   1.0000   1.0000   1.0000   1.0000   1.0000
     1.0000   1.0000   1.0000   1.0000   1.0000   1.0000   1.0000   1.0000
     1.0000   1.0000   1.0000   1.0000   1.0000   1.0000   1.0000   1.0000
     1.0000   1.0000   1.0000   1.0000   1.0000   1.0000   1.0000   1.0000
     1.0000   1.0000   1.0000   0.9976   0.9318   0.0454   0.0000   0.0000
     0.0000   0.0000   0.0000   0.0000   0.0000   0.0000   0.0000   0.0000
     0.0000   0.0000   0.0000   0.0000   0.0000   0.0000   0.0000   0.0000
     0.0000   0.0000   0.0000   0.0000   0.0000   0.0000   0.0000   0.0000
     0.0000   0.0000   0.0000   0.0000   0.0000   0.0000   0.0000   0.0000
     0.0000   0.0000   0.0000   0.0000   0.0000   0.0000   0.0000   0.0000
     0.0000   0.0000   0.0000   0.0000

          k = 0.1250-0.2448 0.0813 (  9275 PWs)   bands (ev):

   -31.2065 -15.7935 -15.7699 -11.5883 -11.5098 -11.2909  -8.0180  -7.6441
    -7.3620  -7.2493  -7.1576  -6.7433  -6.6819  -1.1074  -1.0836  -0.9872
    -0.9652  -0.5783  -0.5612   4.3669   4.5574   4.8399   5.0033   5.0165
     5.1009   5.4229   5.8361   6.0457   6.1348   6.2099   6.3600   6.5001
     6.5913   6.8514   7.1816   7.2305   7.3238   7.3820   7.4159   7.6089
     7.9572   8.0230   8.1703   8.3226   8.4103   8.4843   8.5828   8.6533
     8.7962   8.8629   9.2385   9.4068   9.6307   9.8676  10.6440  13.6762
    13.7804  14.7754  15.0747  15.2662  15.3858  15.7868  16.1825  16.2541
    16.6667  16.8866  17.2045  17.3705  17.7737  17.8392  18.4842  18.5174
    18.7214  19.2347  19.8656  19.9832  20.3366  20.7413  21.9587  22.2412
    22.9419  23.0430  23.1727  24.0515  24.4388  24.9267  25.1265  25.4130
    25.9944  26.2212  26.3571  26.5678  27.1640  27.3463  27.7453  27.9293
    28.1895  28.3051  28.7001  28.8651

     occupation numbers 
     1.0000   1.0000   1.0000   1.0000   1.0000   1.0000   1.0000   1.0000
     1.0000   1.0000   1.0000   1.0000   1.0000   1.0000   1.0000   1.0000
     1.0000   1.0000   1.0000   1.0000   1.0000   1.0000   1.0000   1.0000
     1.0000   1.0000   1.0000   1.0000   1.0000   1.0000   1.0000   1.0000
     1.0000   1.0000   1.0000   1.0000   1.0000   1.0000   1.0000   1.0000
     1.0000   1.0000   1.0000   1.0000   1.0000   1.0000   1.0000   1.0000
     1.0000   1.0000   1.0000   0.9996   0.8452   0.0741   0.0000   0.0000
     0.0000   0.0000   0.0000   0.0000   0.0000   0.0000   0.0000   0.0000
     0.0000   0.0000   0.0000   0.0000   0.0000   0.0000   0.0000   0.0000
     0.0000   0.0000   0.0000   0.0000   0.0000   0.0000   0.0000   0.0000
     0.0000   0.0000   0.0000   0.0000   0.0000   0.0000   0.0000   0.0000
     0.0000   0.0000   0.0000   0.0000   0.0000   0.0000   0.0000   0.0000
     0.0000   0.0000   0.0000   0.0000

          k = 0.1250-0.2448-0.1626 (  9266 PWs)   bands (ev):

   -31.2065 -15.7939 -15.7694 -11.5884 -11.5097 -11.2909  -8.0168  -7.6454
    -7.3587  -7.2534  -7.1572  -6.7450  -6.6796  -1.1113  -1.0789  -0.9845
    -0.9680  -0.5775  -0.5629   4.4077   4.5155   4.8423   5.0018   5.0171
     5.0998   5.3919   5.9135   6.0224   6.1515   6.2126   6.3546   6.5137
     6.5307   6.8073   7.1628   7.2275   7.3381   7.4257   7.4509   7.5797
     7.9913   8.0135   8.1798   8.3668   8.4564   8.4621   8.5490   8.6736
     8.8081   8.8291   9.1751   9.3690   9.6721   9.8411  10.6769  13.6829
    13.7786  14.7821  15.1577  15.3316  15.3454  15.5787  16.0624  16.1509
    16.8102  17.0395  17.2730  17.4012  17.8021  17.9483  18.4698  18.4779
    18.8212  18.9003  19.8473  20.0202  20.4022  21.1554  21.5145  22.2602
    22.6719  23.0292  23.0674  24.0724  24.3751  25.0794  25.3133  25.5252
    25.8797  26.0381  26.3205  27.0388  27.2329  27.3463  27.9062  27.9541
    28.2996  28.3236  28.7523  29.0154

     occupation numbers 
     1.0000   1.0000   1.0000   1.0000   1.0000   1.0000   1.0000   1.0000
     1.0000   1.0000   1.0000   1.0000   1.0000   1.0000   1.0000   1.0000
     1.0000   1.0000   1.0000   1.0000   1.0000   1.0000   1.0000   1.0000
     1.0000   1.0000   1.0000   1.0000   1.0000   1.0000   1.0000   1.0000
     1.0000   1.0000   1.0000   1.0000   1.0000   1.0000   1.0000   1.0000
     1.0000   1.0000   1.0000   1.0000   1.0000   1.0000   1.0000   1.0000
     1.0000   1.0000   1.0000   0.9999   0.7212   0.1209   0.0000   0.0000
     0.0000   0.0000   0.0000   0.0000   0.0000   0.0000   0.0000   0.0000
     0.0000   0.0000   0.0000   0.0000   0.0000   0.0000   0.0000   0.0000
     0.0000   0.0000   0.0000   0.0000   0.0000   0.0000   0.0000   0.0000
     0.0000   0.0000   0.0000   0.0000   0.0000   0.0000   0.0000   0.0000
     0.0000   0.0000   0.0000   0.0000   0.0000   0.0000   0.0000   0.0000
     0.0000   0.0000   0.0000   0.0000

          k = 0.1250-0.2448-0.0813 (  9275 PWs)   bands (ev):

   -31.2065 -15.7935 -15.7699 -11.5883 -11.5098 -11.2909  -8.0180  -7.6441
    -7.3620  -7.2493  -7.1576  -6.7433  -6.6819  -1.1074  -1.0836  -0.9872
    -0.9652  -0.5783  -0.5612   4.3669   4.5574   4.8399   5.0033   5.0165
     5.1009   5.4229   5.8361   6.0457   6.1348   6.2099   6.3600   6.5001
     6.5913   6.8514   7.1816   7.2305   7.3238   7.3820   7.4159   7.6089
     7.9572   8.0230   8.1703   8.3226   8.4103   8.4843   8.5828   8.6533
     8.7962   8.8629   9.2385   9.4068   9.6307   9.8676  10.6440  13.6762
    13.7804  14.7754  15.0747  15.2662  15.3858  15.7868  16.1825  16.2541
    16.6667  16.8866  17.2045  17.3705  17.7737  17.8392  18.4842  18.5174
    18.7214  19.2347  19.8656  19.9832  20.3366  20.7413  21.9587  22.2412
    22.9419  23.0430  23.1727  24.0515  24.4388  24.9267  25.1265  25.4130
    25.9944  26.2212  26.3571  26.5678  27.1640  27.3463  27.7453  27.9293
    28.1895  28.3051  28.7001  28.8651

     occupation numbers 
     1.0000   1.0000   1.0000   1.0000   1.0000   1.0000   1.0000   1.0000
     1.0000   1.0000   1.0000   1.0000   1.0000   1.0000   1.0000   1.0000
     1.0000   1.0000   1.0000   1.0000   1.0000   1.0000   1.0000   1.0000
     1.0000   1.0000   1.0000   1.0000   1.0000   1.0000   1.0000   1.0000
     1.0000   1.0000   1.0000   1.0000   1.0000   1.0000   1.0000   1.0000
     1.0000   1.0000   1.0000   1.0000   1.0000   1.0000   1.0000   1.0000
     1.0000   1.0000   1.0000   0.9996   0.8452   0.0741   0.0000   0.0000
     0.0000   0.0000   0.0000   0.0000   0.0000   0.0000   0.0000   0.0000
     0.0000   0.0000   0.0000   0.0000   0.0000   0.0000   0.0000   0.0000
     0.0000   0.0000   0.0000   0.0000   0.0000   0.0000   0.0000   0.0000
     0.0000   0.0000   0.0000   0.0000   0.0000   0.0000   0.0000   0.0000
     0.0000   0.0000   0.0000   0.0000   0.0000   0.0000   0.0000   0.0000
     0.0000   0.0000   0.0000   0.0000

          k = 0.1250-0.1224 0.0000 (  9267 PWs)   bands (ev):

   -31.2106 -15.8311 -15.8075 -11.6647 -11.3151 -11.2939  -8.2770  -7.5635
    -7.4648  -7.2784  -7.1330  -6.6468  -6.5454  -1.1264  -1.0977  -0.9267
    -0.9157  -0.6229  -0.6121   4.6825   4.7846   4.9404   5.0576   5.1110
     5.3152   5.7317   6.1384   6.1780   6.3119   6.4534   6.6022   6.6205
     6.9461   7.0631   7.1295   7.2218   7.4289   7.4773   7.5127   7.6542
     7.9344   7.9346   8.0432   8.0884   8.1405   8.1907   8.3309   8.5989
     8.8433   9.0575   9.2717   9.3036   9.4242   9.5960   9.7873  13.0026
    13.4223  14.5331  14.5706  14.9255  15.1416  15.9788  16.2053  16.2351
    16.2433  16.7014  17.1114  17.1414  17.7010  17.9790  18.1643  18.3027
    18.4468  19.0903  19.3364  19.7776  20.5825  21.0775  22.0990  22.3522
    22.4480  23.1939  23.7506  23.8623  23.9749  24.5043  24.9514  25.2029
    25.5580  25.7107  26.2417  26.9915  27.1381  27.8154  27.8337  28.1237
    28.5455  28.9696  29.0278  29.1578

     occupation numbers 
     1.0000   1.0000   1.0000   1.0000   1.0000   1.0000   1.0000   1.0000
     1.0000   1.0000   1.0000   1.0000   1.0000   1.0000   1.0000   1.0000
     1.0000   1.0000   1.0000   1.0000   1.0000   1.0000   1.0000   1.0000
     1.0000   1.0000   1.0000   1.0000   1.0000   1.0000   1.0000   1.0000
     1.0000   1.0000   1.0000   1.0000   1.0000   1.0000   1.0000   1.0000
     1.0000   1.0000   1.0000   1.0000   1.0000   1.0000   1.0000   1.0000
     1.0000   1.0000   1.0000   1.0000   0.9992   0.9158   0.2706   0.0000
     0.0000   0.0000   0.0000   0.0000   0.0000   0.0000   0.0000   0.0000
     0.0000   0.0000   0.0000   0.0000   0.0000   0.0000   0.0000   0.0000
     0.0000   0.0000   0.0000   0.0000   0.0000   0.0000   0.0000   0.0000
     0.0000   0.0000   0.0000   0.0000   0.0000   0.0000   0.0000   0.0000
     0.0000   0.0000   0.0000   0.0000   0.0000   0.0000   0.0000   0.0000
     0.0000   0.0000   0.0000   0.0000

          k = 0.1250-0.1224 0.0813 (  9256 PWs)   bands (ev):

   -31.2106 -15.8316 -15.8070 -11.6648 -11.3151 -11.2938  -8.2757  -7.5655
    -7.4645  -7.2784  -7.1331  -6.6492  -6.5423  -1.1228  -1.1020  -0.9249
    -0.9164  -0.6230  -0.6127   4.7051   4.7786   4.9392   5.0514   5.0996
     5.3143   5.7277   6.1645   6.1824   6.3137   6.4318   6.6045   6.6234
     6.9137   7.0391   7.1201   7.2363   7.4603   7.4943   7.5063   7.6302
     7.9118   7.9525   8.0931   8.1078   8.1416   8.1941   8.3171   8.6147
     8.8773   9.0233   9.1706   9.3388   9.4226   9.5753   9.8228  13.0774
    13.3812  14.4496  14.6472  14.9357  15.0910  15.7031  15.9960  16.3940
    16.6346  16.7020  17.1360  17.2019  17.6886  17.9634  18.1666  18.3267
    18.4206  18.8148  19.6610  19.8622  20.4725  21.1570  22.0160  22.1909
    22.3524  22.8906  23.4166  23.9680  24.3573  24.5101  24.9335  25.2883
    25.6707  26.1514  26.2139  26.6314  27.4772  27.5278  28.0410  28.2769
    28.6981  28.8590  29.0795  29.1653

     occupation numbers 
     1.0000   1.0000   1.0000   1.0000   1.0000   1.0000   1.0000   1.0000
     1.0000   1.0000   1.0000   1.0000   1.0000   1.0000   1.0000   1.0000
     1.0000   1.0000   1.0000   1.0000   1.0000   1.0000   1.0000   1.0000
     1.0000   1.0000   1.0000   1.0000   1.0000   1.0000   1.0000   1.0000
     1.0000   1.0000   1.0000   1.0000   1.0000   1.0000   1.0000   1.0000
     1.0000   1.0000   1.0000   1.0000   1.0000   1.0000   1.0000   1.0000
     1.0000   1.0000   1.0000   1.0000   0.9993   0.9443   0.1635   0.0000
     0.0000   0.0000   0.0000   0.0000   0.0000   0.0000   0.0000   0.0000
     0.0000   0.0000   0.0000   0.0000   0.0000   0.0000   0.0000   0.0000
     0.0000   0.0000   0.0000   0.0000   0.0000   0.0000   0.0000   0.0000
     0.0000   0.0000   0.0000   0.0000   0.0000   0.0000   0.0000   0.0000
     0.0000   0.0000   0.0000   0.0000   0.0000   0.0000   0.0000   0.0000
     0.0000   0.0000   0.0000   0.0000

          k = 0.1250-0.1224-0.1626 (  9268 PWs)   bands (ev):

   -31.2106 -15.8321 -15.8065 -11.6648 -11.3151 -11.2938  -8.2744  -7.5675
    -7.4642  -7.2784  -7.1331  -6.6516  -6.5394  -1.1166  -1.1089  -0.9231
    -0.9173  -0.6232  -0.6132   4.7415   4.7603   4.9381   5.0403   5.0913
     5.3133   5.7240   6.1814   6.1948   6.3350   6.3922   6.6073   6.6268
     6.8765   7.0210   7.1193   7.2434   7.4787   7.4930   7.5590   7.5749
     7.9012   7.9606   8.1010   8.1311   8.1755   8.2275   8.2806   8.6332
     8.9243   8.9744   9.1108   9.2842   9.4978   9.5286   9.8499  13.2337
    13.2573  14.3833  14.7984  14.9201  14.9628  15.5015  16.0569  16.3935
    16.7151  16.8584  17.1666  17.2094  17.7113  17.9452  18.1917  18.3744
    18.3766  18.6334  19.8057  20.1696  20.2099  21.4102  21.6583  21.9733
    22.2720  22.7267  23.4538  24.0240  24.4505  24.5222  24.9085  25.5170
    25.5996  26.1283  26.1827  27.1135  27.2179  28.0191  28.1391  28.1715
    28.6495  28.8335  29.0154  29.0224

     occupation numbers 
     1.0000   1.0000   1.0000   1.0000   1.0000   1.0000   1.0000   1.0000
     1.0000   1.0000   1.0000   1.0000   1.0000   1.0000   1.0000   1.0000
     1.0000   1.0000   1.0000   1.0000   1.0000   1.0000   1.0000   1.0000
     1.0000   1.0000   1.0000   1.0000   1.0000   1.0000   1.0000   1.0000
     1.0000   1.0000   1.0000   1.0000   1.0000   1.0000   1.0000   1.0000
     1.0000   1.0000   1.0000   1.0000   1.0000   1.0000   1.0000   1.0000
     1.0000   1.0000   1.0000   1.0000   0.9917   0.9811   0.1035   0.0000
     0.0000   0.0000   0.0000   0.0000   0.0000   0.0000   0.0000   0.0000
     0.0000   0.0000   0.0000   0.0000   0.0000   0.0000   0.0000   0.0000
     0.0000   0.0000   0.0000   0.0000   0.0000   0.0000   0.0000   0.0000
     0.0000   0.0000   0.0000   0.0000   0.0000   0.0000   0.0000   0.0000
     0.0000   0.0000   0.0000   0.0000   0.0000   0.0000   0.0000   0.0000
     0.0000   0.0000   0.0000   0.0000

          k = 0.1250-0.1224-0.0813 (  9256 PWs)   bands (ev):

   -31.2106 -15.8316 -15.8070 -11.6648 -11.3151 -11.2938  -8.2757  -7.5655
    -7.4645  -7.2784  -7.1331  -6.6492  -6.5423  -1.1228  -1.1020  -0.9249
    -0.9164  -0.6230  -0.6127   4.7051   4.7786   4.9392   5.0514   5.0996
     5.3143   5.7277   6.1645   6.1824   6.3137   6.4318   6.6045   6.6234
     6.9137   7.0391   7.1201   7.2363   7.4603   7.4943   7.5063   7.6302
     7.9118   7.9525   8.0931   8.1078   8.1416   8.1941   8.3171   8.6147
     8.8773   9.0233   9.1706   9.3388   9.4226   9.5753   9.8228  13.0774
    13.3812  14.4496  14.6472  14.9357  15.0910  15.7031  15.9960  16.3940
    16.6346  16.7020  17.1360  17.2019  17.6886  17.9634  18.1666  18.3267
    18.4206  18.8148  19.6610  19.8622  20.4725  21.1570  22.0160  22.1909
    22.3524  22.8906  23.4166  23.9680  24.3573  24.5101  24.9335  25.2883
    25.6707  26.1514  26.2139  26.6314  27.4772  27.5278  28.0410  28.2769
    28.6981  28.8590  29.0795  29.1653

     occupation numbers 
     1.0000   1.0000   1.0000   1.0000   1.0000   1.0000   1.0000   1.0000
     1.0000   1.0000   1.0000   1.0000   1.0000   1.0000   1.0000   1.0000
     1.0000   1.0000   1.0000   1.0000   1.0000   1.0000   1.0000   1.0000
     1.0000   1.0000   1.0000   1.0000   1.0000   1.0000   1.0000   1.0000
     1.0000   1.0000   1.0000   1.0000   1.0000   1.0000   1.0000   1.0000
     1.0000   1.0000   1.0000   1.0000   1.0000   1.0000   1.0000   1.0000
     1.0000   1.0000   1.0000   1.0000   0.9993   0.9443   0.1635   0.0000
     0.0000   0.0000   0.0000   0.0000   0.0000   0.0000   0.0000   0.0000
     0.0000   0.0000   0.0000   0.0000   0.0000   0.0000   0.0000   0.0000
     0.0000   0.0000   0.0000   0.0000   0.0000   0.0000   0.0000   0.0000
     0.0000   0.0000   0.0000   0.0000   0.0000   0.0000   0.0000   0.0000
     0.0000   0.0000   0.0000   0.0000   0.0000   0.0000   0.0000   0.0000
     0.0000   0.0000   0.0000   0.0000

          k = 0.2500 0.0000 0.0000 (  9274 PWs)   bands (ev):

   -31.2070 -15.7981 -15.7776 -11.6072 -11.5279 -11.2100  -8.1401  -7.5861
    -7.5813  -7.2203  -7.1922  -6.7273  -6.5079  -1.2433  -1.0638  -0.7602
    -0.7562  -0.7355  -0.6750   4.3636   4.4977   5.0217   5.0941   5.3012
     5.3411   6.1210   6.1325   6.1436   6.2957   6.3271   6.5070   6.5107
     6.7738   7.1535   7.1875   7.1991   7.2253   7.2936   7.5385   7.6544
     7.6782   7.8177   7.9974   8.1985   8.2409   8.3079   8.4021   8.6549
     8.9440   8.9497   9.0196   9.1093   9.1249   9.3487   9.6487  13.4176
    13.7343  14.9428  14.9742  15.0668  15.5951  16.2163  16.5315  16.5396
    16.6707  16.7346  16.9146  17.4957  17.5600  18.1337  18.1766  18.3308
    18.6397  18.6787  19.4828  19.5749  20.7682  21.6889  21.7839  22.1758
    22.6170  23.7079  23.7531  23.9418  23.9798  23.9977  24.2595  25.8184
    25.9836  26.1203  26.7181  27.2056  27.2241  27.3408  27.4279  27.8958
    27.9752  28.6355  28.7137  29.5956

     occupation numbers 
     1.0000   1.0000   1.0000   1.0000   1.0000   1.0000   1.0000   1.0000
     1.0000   1.0000   1.0000   1.0000   1.0000   1.0000   1.0000   1.0000
     1.0000   1.0000   1.0000   1.0000   1.0000   1.0000   1.0000   1.0000
     1.0000   1.0000   1.0000   1.0000   1.0000   1.0000   1.0000   1.0000
     1.0000   1.0000   1.0000   1.0000   1.0000   1.0000   1.0000   1.0000
     1.0000   1.0000   1.0000   1.0000   1.0000   1.0000   1.0000   1.0000
     1.0000   1.0000   1.0000   1.0000   1.0000   1.0000   0.7966   0.0000
     0.0000   0.0000   0.0000   0.0000   0.0000   0.0000   0.0000   0.0000
     0.0000   0.0000   0.0000   0.0000   0.0000   0.0000   0.0000   0.0000
     0.0000   0.0000   0.0000   0.0000   0.0000   0.0000   0.0000   0.0000
     0.0000   0.0000   0.0000   0.0000   0.0000   0.0000   0.0000   0.0000
     0.0000   0.0000   0.0000   0.0000   0.0000   0.0000   0.0000   0.0000
     0.0000   0.0000   0.0000   0.0000

          k = 0.2500 0.0000 0.0813 (  9283 PWs)   bands (ev):

   -31.2070 -15.7986 -15.7772 -11.6073 -11.5279 -11.2100  -8.1395  -7.6045
    -7.5609  -7.2253  -7.1902  -6.7283  -6.5065  -1.2367  -1.0711  -0.7610
    -0.7587  -0.7348  -0.6722   4.3751   4.4908   5.0202   5.0929   5.3018
     5.3472   6.0521   6.1457   6.1938   6.2943   6.3686   6.5072   6.5103
     6.6664   7.1157   7.1991   7.2384   7.2528   7.3067   7.5759   7.6463
     7.6882   7.7796   8.0333   8.2025   8.2519   8.2996   8.3934   8.6685
     8.9130   8.9327   8.9956   9.1131   9.1763   9.3436   9.6269  13.4639
    13.7323  14.8866  14.9431  15.0862  15.4705  16.3011  16.3724  16.4475
    16.7411  17.0128  17.0707  17.4385  17.5333  17.9948  18.0592  18.6399
    18.6692  18.6780  19.3873  19.7618  20.6086  21.1238  22.0220  22.5438
    22.6705  23.0436  23.5918  23.8333  23.9409  24.1405  24.7180  25.8571
    26.0427  26.4534  26.6363  26.7635  27.4284  27.5056  27.7399  27.9424
    27.9576  28.7091  28.7524  29.5540

     occupation numbers 
     1.0000   1.0000   1.0000   1.0000   1.0000   1.0000   1.0000   1.0000
     1.0000   1.0000   1.0000   1.0000   1.0000   1.0000   1.0000   1.0000
     1.0000   1.0000   1.0000   1.0000   1.0000   1.0000   1.0000   1.0000
     1.0000   1.0000   1.0000   1.0000   1.0000   1.0000   1.0000   1.0000
     1.0000   1.0000   1.0000   1.0000   1.0000   1.0000   1.0000   1.0000
     1.0000   1.0000   1.0000   1.0000   1.0000   1.0000   1.0000   1.0000
     1.0000   1.0000   1.0000   1.0000   1.0000   1.0000   0.8544   0.0000
     0.0000   0.0000   0.0000   0.0000   0.0000   0.0000   0.0000   0.0000
     0.0000   0.0000   0.0000   0.0000   0.0000   0.0000   0.0000   0.0000
     0.0000   0.0000   0.0000   0.0000   0.0000   0.0000   0.0000   0.0000
     0.0000   0.0000   0.0000   0.0000   0.0000   0.0000   0.0000   0.0000
     0.0000   0.0000   0.0000   0.0000   0.0000   0.0000   0.0000   0.0000
     0.0000   0.0000   0.0000   0.0000

          k = 0.2500 0.0000-0.1626 (  9268 PWs)   bands (ev):

   -31.2070 -15.7990 -15.7767 -11.6073 -11.5279 -11.2100  -8.1389  -7.6126
    -7.5508  -7.2298  -7.1887  -6.7292  -6.5051  -1.2295  -1.0791  -0.7616
    -0.7611  -0.7340  -0.6696   4.3884   4.4820   5.0185   5.0918   5.3025
     5.3534   6.0165   6.1479   6.2352   6.2930   6.4344   6.5075   6.5098
     6.5343   7.0916   7.1992   7.2593   7.2863   7.3194   7.6286   7.6411
     7.6954   7.7255   8.0702   8.2095   8.2599   8.2915   8.3845   8.6826
     8.8868   8.9210   8.9648   9.1167   9.2393   9.3211   9.6052  13.5192
    13.7233  14.8053  14.9434  15.1219  15.3446  16.1785  16.3855  16.5711
    16.8576  17.0124  17.2134  17.3506  17.5961  17.9356  17.9682  18.6401
    18.6774  18.9519  19.2693  20.1252  20.2171  20.8993  21.9725  22.4514
    22.7296  23.1068  23.5208  23.8478  23.9539  24.3663  24.3750  25.9220
    26.1412  26.4735  26.5147  27.1555  27.5392  27.6804  27.8253  27.8954
    28.0779  28.7435  28.9361  29.4140

     occupation numbers 
     1.0000   1.0000   1.0000   1.0000   1.0000   1.0000   1.0000   1.0000
     1.0000   1.0000   1.0000   1.0000   1.0000   1.0000   1.0000   1.0000
     1.0000   1.0000   1.0000   1.0000   1.0000   1.0000   1.0000   1.0000
     1.0000   1.0000   1.0000   1.0000   1.0000   1.0000   1.0000   1.0000
     1.0000   1.0000   1.0000   1.0000   1.0000   1.0000   1.0000   1.0000
     1.0000   1.0000   1.0000   1.0000   1.0000   1.0000   1.0000   1.0000
     1.0000   1.0000   1.0000   1.0000   1.0000   1.0000   0.9000   0.0000
     0.0000   0.0000   0.0000   0.0000   0.0000   0.0000   0.0000   0.0000
     0.0000   0.0000   0.0000   0.0000   0.0000   0.0000   0.0000   0.0000
     0.0000   0.0000   0.0000   0.0000   0.0000   0.0000   0.0000   0.0000
     0.0000   0.0000   0.0000   0.0000   0.0000   0.0000   0.0000   0.0000
     0.0000   0.0000   0.0000   0.0000   0.0000   0.0000   0.0000   0.0000
     0.0000   0.0000   0.0000   0.0000

          k = 0.2500 0.0000-0.0813 (  9283 PWs)   bands (ev):

   -31.2070 -15.7986 -15.7772 -11.6073 -11.5279 -11.2100  -8.1395  -7.6045
    -7.5609  -7.2253  -7.1902  -6.7283  -6.5065  -1.2367  -1.0711  -0.7610
    -0.7587  -0.7348  -0.6722   4.3751   4.4908   5.0202   5.0929   5.3018
     5.3472   6.0521   6.1457   6.1938   6.2943   6.3686   6.5072   6.5103
     6.6664   7.1157   7.1991   7.2384   7.2528   7.3067   7.5759   7.6463
     7.6882   7.7796   8.0333   8.2025   8.2519   8.2996   8.3934   8.6685
     8.9130   8.9327   8.9956   9.1131   9.1763   9.3436   9.6269  13.4639
    13.7323  14.8866  14.9431  15.0862  15.4705  16.3011  16.3724  16.4475
    16.7411  17.0128  17.0707  17.4385  17.5333  17.9948  18.0592  18.6399
    18.6692  18.6780  19.3873  19.7618  20.6086  21.1238  22.0220  22.5438
    22.6705  23.0436  23.5918  23.8333  23.9409  24.1405  24.7180  25.8571
    26.0427  26.4534  26.6363  26.7635  27.4284  27.5056  27.7399  27.9424
    27.9576  28.7091  28.7524  29.5540

     occupation numbers 
     1.0000   1.0000   1.0000   1.0000   1.0000   1.0000   1.0000   1.0000
     1.0000   1.0000   1.0000   1.0000   1.0000   1.0000   1.0000   1.0000
     1.0000   1.0000   1.0000   1.0000   1.0000   1.0000   1.0000   1.0000
     1.0000   1.0000   1.0000   1.0000   1.0000   1.0000   1.0000   1.0000
     1.0000   1.0000   1.0000   1.0000   1.0000   1.0000   1.0000   1.0000
     1.0000   1.0000   1.0000   1.0000   1.0000   1.0000   1.0000   1.0000
     1.0000   1.0000   1.0000   1.0000   1.0000   1.0000   0.8544   0.0000
     0.0000   0.0000   0.0000   0.0000   0.0000   0.0000   0.0000   0.0000
     0.0000   0.0000   0.0000   0.0000   0.0000   0.0000   0.0000   0.0000
     0.0000   0.0000   0.0000   0.0000   0.0000   0.0000   0.0000   0.0000
     0.0000   0.0000   0.0000   0.0000   0.0000   0.0000   0.0000   0.0000
     0.0000   0.0000   0.0000   0.0000   0.0000   0.0000   0.0000   0.0000
     0.0000   0.0000   0.0000   0.0000

          k = 0.2500 0.1224 0.0000 (  9283 PWs)   bands (ev):

   -31.2054 -15.7841 -15.7638 -11.5780 -11.5235 -11.2988  -8.0310  -7.5698
    -7.5361  -7.2393  -7.1999  -6.7349  -6.5427  -1.2414  -1.0569  -0.9992
    -0.9410  -0.6135  -0.5965   4.2648   4.4818   4.9961   5.0209   5.1262
     5.4008   5.7108   5.9968   6.0492   6.1285   6.2263   6.2497   6.5370
     6.8893   6.9003   7.2290   7.2850   7.3488   7.3521   7.4150   7.6261
     7.8195   7.9424   8.0294   8.2625   8.2815   8.3976   8.5050   8.5438
     8.8290   8.8537   9.2307   9.4129   9.5105   9.8622   9.8672  13.5348
    13.8216  14.7448  15.2464  15.2497  15.4642  16.1752  16.3036  16.5037
    16.5404  16.8937  16.9520  17.5987  17.6109  17.8214  18.4642  18.5821
    18.6577  18.7937  19.6205  19.9053  20.6829  21.0882  21.9801  22.3179
    22.7076  23.0124  23.8979  24.0041  24.1633  24.4838  25.0575  25.1335
    26.0455  26.3529  26.7044  27.0046  27.0531  27.5729  27.8048  28.0102
    28.1193  28.2457  28.8469  29.1479

     occupation numbers 
     1.0000   1.0000   1.0000   1.0000   1.0000   1.0000   1.0000   1.0000
     1.0000   1.0000   1.0000   1.0000   1.0000   1.0000   1.0000   1.0000
     1.0000   1.0000   1.0000   1.0000   1.0000   1.0000   1.0000   1.0000
     1.0000   1.0000   1.0000   1.0000   1.0000   1.0000   1.0000   1.0000
     1.0000   1.0000   1.0000   1.0000   1.0000   1.0000   1.0000   1.0000
     1.0000   1.0000   1.0000   1.0000   1.0000   1.0000   1.0000   1.0000
     1.0000   1.0000   1.0000   0.9995   0.9883   0.0822   0.0747   0.0000
     0.0000   0.0000   0.0000   0.0000   0.0000   0.0000   0.0000   0.0000
     0.0000   0.0000   0.0000   0.0000   0.0000   0.0000   0.0000   0.0000
     0.0000   0.0000   0.0000   0.0000   0.0000   0.0000   0.0000   0.0000
     0.0000   0.0000   0.0000   0.0000   0.0000   0.0000   0.0000   0.0000
     0.0000   0.0000   0.0000   0.0000   0.0000   0.0000   0.0000   0.0000
     0.0000   0.0000   0.0000   0.0000

          k = 0.2500 0.1224 0.0813 (  9294 PWs)   bands (ev):

   -31.2054 -15.7845 -15.7634 -11.5780 -11.5235 -11.2989  -8.0305  -7.5795
    -7.5251  -7.2380  -7.2030  -6.7365  -6.5410  -1.2374  -1.0623  -1.0009
    -0.9382  -0.6155  -0.5946   4.2776   4.4719   4.9856   5.0392   5.1101
     5.4099   5.6990   6.0117   6.0386   6.1363   6.2326   6.2690   6.5428
     6.7481   6.9333   7.2193   7.2991   7.3533   7.4033   7.4549   7.6089
     7.8392   7.9494   8.0277   8.2612   8.2926   8.3895   8.4921   8.5381
     8.8343   8.8779   9.1994   9.3427   9.5566   9.7779   9.9539  13.5540
    13.8291  14.7520  15.1418  15.2712  15.5426  15.9830  16.2569  16.5263
    16.6786  16.7949  17.1491  17.5485  17.6552  17.7963  18.4554  18.5153
    18.7366  18.9454  19.5408  20.0491  20.5300  21.1391  22.0043  22.1429
    22.7609  22.8784  23.2087  24.0184  24.1964  24.9668  25.0770  25.5231
    26.0687  26.3692  26.7291  26.8078  27.1429  27.6792  27.8118  28.0366
    28.2135  28.3673  28.9391  29.0465

     occupation numbers 
     1.0000   1.0000   1.0000   1.0000   1.0000   1.0000   1.0000   1.0000
     1.0000   1.0000   1.0000   1.0000   1.0000   1.0000   1.0000   1.0000
     1.0000   1.0000   1.0000   1.0000   1.0000   1.0000   1.0000   1.0000
     1.0000   1.0000   1.0000   1.0000   1.0000   1.0000   1.0000   1.0000
     1.0000   1.0000   1.0000   1.0000   1.0000   1.0000   1.0000   1.0000
     1.0000   1.0000   1.0000   1.0000   1.0000   1.0000   1.0000   1.0000
     1.0000   1.0000   1.0000   1.0000   0.9630   0.3036   0.0096   0.0000
     0.0000   0.0000   0.0000   0.0000   0.0000   0.0000   0.0000   0.0000
     0.0000   0.0000   0.0000   0.0000   0.0000   0.0000   0.0000   0.0000
     0.0000   0.0000   0.0000   0.0000   0.0000   0.0000   0.0000   0.0000
     0.0000   0.0000   0.0000   0.0000   0.0000   0.0000   0.0000   0.0000
     0.0000   0.0000   0.0000   0.0000   0.0000   0.0000   0.0000   0.0000
     0.0000   0.0000   0.0000   0.0000

          k = 0.2500 0.1224-0.1626 (  9292 PWs)   bands (ev):

   -31.2054 -15.7849 -15.7630 -11.5781 -11.5235 -11.2989  -8.0299  -7.5863
    -7.5170  -7.2365  -7.2064  -6.7381  -6.5394  -1.2331  -1.0677  -1.0025
    -0.9356  -0.6173  -0.5930   4.2920   4.4603   4.9788   5.0667   5.0809
     5.4195   5.6872   6.0255   6.0284   6.1444   6.2489   6.2860   6.5751
     6.6183   6.9336   7.2140   7.3040   7.3590   7.4301   7.5363   7.5661
     7.8696   7.9204   8.0561   8.2582   8.3232   8.3557   8.4819   8.5316
     8.8261   8.9295   9.1702   9.2655   9.6035   9.7341   9.9907  13.5735
    13.8366  14.7586  15.0854  15.2907  15.5236  15.9540  16.1821  16.4768
    16.7926  16.8231  17.1866  17.5656  17.6692  17.7766  18.4067  18.5928
    18.7162  19.1760  19.3929  20.2762  20.3182  21.2720  21.7389  22.1526
    22.4819  22.8565  23.0481  24.0678  24.3938  24.9571  25.1894  25.4731
    26.0835  26.5067  26.6104  27.1989  27.2145  27.7031  27.8035  28.1990
    28.2698  28.3950  28.9543  29.1107

     occupation numbers 
     1.0000   1.0000   1.0000   1.0000   1.0000   1.0000   1.0000   1.0000
     1.0000   1.0000   1.0000   1.0000   1.0000   1.0000   1.0000   1.0000
     1.0000   1.0000   1.0000   1.0000   1.0000   1.0000   1.0000   1.0000
     1.0000   1.0000   1.0000   1.0000   1.0000   1.0000   1.0000   1.0000
     1.0000   1.0000   1.0000   1.0000   1.0000   1.0000   1.0000   1.0000
     1.0000   1.0000   1.0000   1.0000   1.0000   1.0000   1.0000   1.0000
     1.0000   1.0000   1.0000   1.0000   0.9030   0.4766   0.0032   0.0000
     0.0000   0.0000   0.0000   0.0000   0.0000   0.0000   0.0000   0.0000
     0.0000   0.0000   0.0000   0.0000   0.0000   0.0000   0.0000   0.0000
     0.0000   0.0000   0.0000   0.0000   0.0000   0.0000   0.0000   0.0000
     0.0000   0.0000   0.0000   0.0000   0.0000   0.0000   0.0000   0.0000
     0.0000   0.0000   0.0000   0.0000   0.0000   0.0000   0.0000   0.0000
     0.0000   0.0000   0.0000   0.0000

          k = 0.2500 0.1224-0.0813 (  9294 PWs)   bands (ev):

   -31.2054 -15.7845 -15.7634 -11.5780 -11.5235 -11.2989  -8.0305  -7.5795
    -7.5251  -7.2380  -7.2030  -6.7365  -6.5410  -1.2374  -1.0623  -1.0009
    -0.9382  -0.6155  -0.5946   4.2776   4.4719   4.9856   5.0392   5.1101
     5.4099   5.6990   6.0117   6.0386   6.1363   6.2326   6.2690   6.5428
     6.7481   6.9333   7.2193   7.2991   7.3533   7.4033   7.4549   7.6089
     7.8392   7.9494   8.0277   8.2612   8.2926   8.3895   8.4921   8.5381
     8.8343   8.8779   9.1994   9.3427   9.5566   9.7779   9.9539  13.5540
    13.8291  14.7520  15.1418  15.2712  15.5426  15.9830  16.2569  16.5263
    16.6786  16.7949  17.1491  17.5485  17.6552  17.7963  18.4554  18.5153
    18.7366  18.9454  19.5408  20.0491  20.5300  21.1391  22.0043  22.1429
    22.7609  22.8784  23.2087  24.0184  24.1964  24.9668  25.0770  25.5231
    26.0687  26.3692  26.7291  26.8078  27.1429  27.6792  27.8118  28.0366
    28.2135  28.3673  28.9391  29.0465

     occupation numbers 
     1.0000   1.0000   1.0000   1.0000   1.0000   1.0000   1.0000   1.0000
     1.0000   1.0000   1.0000   1.0000   1.0000   1.0000   1.0000   1.0000
     1.0000   1.0000   1.0000   1.0000   1.0000   1.0000   1.0000   1.0000
     1.0000   1.0000   1.0000   1.0000   1.0000   1.0000   1.0000   1.0000
     1.0000   1.0000   1.0000   1.0000   1.0000   1.0000   1.0000   1.0000
     1.0000   1.0000   1.0000   1.0000   1.0000   1.0000   1.0000   1.0000
     1.0000   1.0000   1.0000   1.0000   0.9630   0.3036   0.0096   0.0000
     0.0000   0.0000   0.0000   0.0000   0.0000   0.0000   0.0000   0.0000
     0.0000   0.0000   0.0000   0.0000   0.0000   0.0000   0.0000   0.0000
     0.0000   0.0000   0.0000   0.0000   0.0000   0.0000   0.0000   0.0000
     0.0000   0.0000   0.0000   0.0000   0.0000   0.0000   0.0000   0.0000
     0.0000   0.0000   0.0000   0.0000   0.0000   0.0000   0.0000   0.0000
     0.0000   0.0000   0.0000   0.0000

          k = 0.2500 0.2448 0.0000 (  9303 PWs)   bands (ev):

   -31.2014 -15.7499 -15.7301 -11.5201 -11.5045 -11.4860  -7.7772  -7.5836
    -7.3978  -7.3131  -7.1632  -6.7552  -6.6434  -1.2664  -1.2189  -1.0885
    -1.0387  -0.6846  -0.6599   3.9431   4.3617   4.8474   4.8731   4.8798
     5.0680   5.5059   5.5890   5.6488   5.8558   6.2181   6.3320   6.5168
     6.6069   6.8688   6.9316   7.2555   7.3791   7.5361   7.6344   7.8436
     7.8458   8.2236   8.3134   8.3775   8.4340   8.4417   8.7137   8.7554
     8.8097   8.8390   9.3469   9.5093  10.1850  10.3888  10.6179  13.5690
    14.1538  14.4908  15.1688  15.8608  16.0140  16.0919  16.3790  16.5059
    16.5729  16.6344  17.0687  17.5990  17.6334  17.7291  18.2623  18.8715
    19.0647  19.5264  20.0583  20.1921  20.3128  21.0712  21.7278  21.9027
    22.7705  23.1992  23.9730  24.4541  24.5019  24.7600  25.0828  25.6439
    26.0270  26.2736  26.4125  26.6528  27.1775  27.3180  27.3398  27.5770
    28.0337  28.3985  28.6202  28.6398

     occupation numbers 
     1.0000   1.0000   1.0000   1.0000   1.0000   1.0000   1.0000   1.0000
     1.0000   1.0000   1.0000   1.0000   1.0000   1.0000   1.0000   1.0000
     1.0000   1.0000   1.0000   1.0000   1.0000   1.0000   1.0000   1.0000
     1.0000   1.0000   1.0000   1.0000   1.0000   1.0000   1.0000   1.0000
     1.0000   1.0000   1.0000   1.0000   1.0000   1.0000   1.0000   1.0000
     1.0000   1.0000   1.0000   1.0000   1.0000   1.0000   1.0000   1.0000
     1.0000   1.0000   1.0000   0.9886   0.0000   0.0000   0.0000   0.0000
     0.0000   0.0000   0.0000   0.0000   0.0000   0.0000   0.0000   0.0000
     0.0000   0.0000   0.0000   0.0000   0.0000   0.0000   0.0000   0.0000
     0.0000   0.0000   0.0000   0.0000   0.0000   0.0000   0.0000   0.0000
     0.0000   0.0000   0.0000   0.0000   0.0000   0.0000   0.0000   0.0000
     0.0000   0.0000   0.0000   0.0000   0.0000   0.0000   0.0000   0.0000
     0.0000   0.0000   0.0000   0.0000

          k = 0.2500 0.2448 0.0813 (  9296 PWs)   bands (ev):

   -31.2014 -15.7502 -15.7298 -11.5201 -11.5045 -11.4860  -7.7763  -7.5860
    -7.3965  -7.3117  -7.1635  -6.7576  -6.6420  -1.2645  -1.2209  -1.0857
    -1.0411  -0.6884  -0.6564   3.9570   4.3417   4.8497   4.8645   4.8889
     5.0686   5.5027   5.5932   5.6284   5.8966   6.2262   6.3414   6.5019
     6.5718   6.7902   6.9340   7.3782   7.3896   7.5455   7.6331   7.7773
     7.8955   8.2288   8.2927   8.4169   8.4286   8.4554   8.6521   8.7844
     8.8059   8.8617   9.2733   9.4800  10.1940  10.3831  10.6647  13.5982
    14.1219  14.5027  15.2483  15.7743  15.9199  16.0949  16.2065  16.3812
    16.6879  16.7847  17.2136  17.5576  17.6384  17.8044  18.3549  18.7632
    19.1554  19.5295  19.9203  20.1203  20.4270  21.1711  21.8264  21.8984
    22.5230  23.0530  23.5150  24.1130  24.5937  25.0247  25.6443  25.8784
    26.0002  26.3412  26.5879  26.6931  27.0997  27.2109  27.4064  27.4992
    27.9344  28.4170  28.6721  28.7456

     occupation numbers 
     1.0000   1.0000   1.0000   1.0000   1.0000   1.0000   1.0000   1.0000
     1.0000   1.0000   1.0000   1.0000   1.0000   1.0000   1.0000   1.0000
     1.0000   1.0000   1.0000   1.0000   1.0000   1.0000   1.0000   1.0000
     1.0000   1.0000   1.0000   1.0000   1.0000   1.0000   1.0000   1.0000
     1.0000   1.0000   1.0000   1.0000   1.0000   1.0000   1.0000   1.0000
     1.0000   1.0000   1.0000   1.0000   1.0000   1.0000   1.0000   1.0000
     1.0000   1.0000   1.0000   0.9951   0.0000   0.0000   0.0000   0.0000
     0.0000   0.0000   0.0000   0.0000   0.0000   0.0000   0.0000   0.0000
     0.0000   0.0000   0.0000   0.0000   0.0000   0.0000   0.0000   0.0000
     0.0000   0.0000   0.0000   0.0000   0.0000   0.0000   0.0000   0.0000
     0.0000   0.0000   0.0000   0.0000   0.0000   0.0000   0.0000   0.0000
     0.0000   0.0000   0.0000   0.0000   0.0000   0.0000   0.0000   0.0000
     0.0000   0.0000   0.0000   0.0000

          k = 0.2500 0.2448-0.1626 (  9288 PWs)   bands (ev):

   -31.2014 -15.7506 -15.7294 -11.5201 -11.5046 -11.4860  -7.7753  -7.5885
    -7.3952  -7.3103  -7.1637  -6.7599  -6.6407  -1.2626  -1.2230  -1.0827
    -1.0438  -0.6916  -0.6536   3.9725   4.3202   4.8547   4.8571   4.8942
     5.0691   5.4994   5.6044   5.6046   5.9369   6.2347   6.3684   6.4530
     6.5431   6.7417   6.9366   7.3807   7.5550   7.5581   7.6032   7.6926
     7.9304   8.2329   8.2836   8.4215   8.4376   8.5164   8.5747   8.7911
     8.8024   8.8979   9.1793   9.4620  10.2030  10.3777  10.7068  13.6313
    14.0857  14.5150  15.3967  15.6284  15.8046  16.0410  16.1709  16.3377
    16.7715  16.8417  17.3536  17.4688  17.6778  17.8791  18.4796  18.6587
    19.2020  19.6302  19.6582  20.2095  20.3884  21.5037  21.7564  21.9874
    22.0284  23.0339  23.1783  24.1366  24.8320  24.8368  25.7302  26.0755
    26.1446  26.3428  26.6864  26.9861  27.0901  27.1459  27.4687  27.5189
    27.9366  28.2366  28.7598  28.8595

     occupation numbers 
     1.0000   1.0000   1.0000   1.0000   1.0000   1.0000   1.0000   1.0000
     1.0000   1.0000   1.0000   1.0000   1.0000   1.0000   1.0000   1.0000
     1.0000   1.0000   1.0000   1.0000   1.0000   1.0000   1.0000   1.0000
     1.0000   1.0000   1.0000   1.0000   1.0000   1.0000   1.0000   1.0000
     1.0000   1.0000   1.0000   1.0000   1.0000   1.0000   1.0000   1.0000
     1.0000   1.0000   1.0000   1.0000   1.0000   1.0000   1.0000   1.0000
     1.0000   1.0000   1.0000   0.9972   0.0000   0.0000   0.0000   0.0000
     0.0000   0.0000   0.0000   0.0000   0.0000   0.0000   0.0000   0.0000
     0.0000   0.0000   0.0000   0.0000   0.0000   0.0000   0.0000   0.0000
     0.0000   0.0000   0.0000   0.0000   0.0000   0.0000   0.0000   0.0000
     0.0000   0.0000   0.0000   0.0000   0.0000   0.0000   0.0000   0.0000
     0.0000   0.0000   0.0000   0.0000   0.0000   0.0000   0.0000   0.0000
     0.0000   0.0000   0.0000   0.0000

          k = 0.2500 0.2448-0.0813 (  9296 PWs)   bands (ev):

   -31.2014 -15.7502 -15.7298 -11.5201 -11.5045 -11.4860  -7.7763  -7.5860
    -7.3965  -7.3117  -7.1635  -6.7576  -6.6420  -1.2645  -1.2209  -1.0857
    -1.0411  -0.6884  -0.6564   3.9570   4.3417   4.8497   4.8645   4.8889
     5.0686   5.5027   5.5932   5.6284   5.8966   6.2262   6.3414   6.5019
     6.5718   6.7902   6.9340   7.3782   7.3896   7.5455   7.6331   7.7773
     7.8955   8.2288   8.2927   8.4169   8.4286   8.4554   8.6521   8.7844
     8.8059   8.8617   9.2733   9.4800  10.1940  10.3831  10.6647  13.5982
    14.1219  14.5027  15.2483  15.7743  15.9199  16.0949  16.2065  16.3812
    16.6879  16.7847  17.2136  17.5576  17.6384  17.8044  18.3549  18.7632
    19.1554  19.5295  19.9203  20.1203  20.4270  21.1711  21.8264  21.8984
    22.5230  23.0530  23.5150  24.1130  24.5937  25.0247  25.6443  25.8784
    26.0002  26.3412  26.5879  26.6931  27.0997  27.2109  27.4064  27.4992
    27.9344  28.4170  28.6721  28.7456

     occupation numbers 
     1.0000   1.0000   1.0000   1.0000   1.0000   1.0000   1.0000   1.0000
     1.0000   1.0000   1.0000   1.0000   1.0000   1.0000   1.0000   1.0000
     1.0000   1.0000   1.0000   1.0000   1.0000   1.0000   1.0000   1.0000
     1.0000   1.0000   1.0000   1.0000   1.0000   1.0000   1.0000   1.0000
     1.0000   1.0000   1.0000   1.0000   1.0000   1.0000   1.0000   1.0000
     1.0000   1.0000   1.0000   1.0000   1.0000   1.0000   1.0000   1.0000
     1.0000   1.0000   1.0000   0.9951   0.0000   0.0000   0.0000   0.0000
     0.0000   0.0000   0.0000   0.0000   0.0000   0.0000   0.0000   0.0000
     0.0000   0.0000   0.0000   0.0000   0.0000   0.0000   0.0000   0.0000
     0.0000   0.0000   0.0000   0.0000   0.0000   0.0000   0.0000   0.0000
     0.0000   0.0000   0.0000   0.0000   0.0000   0.0000   0.0000   0.0000
     0.0000   0.0000   0.0000   0.0000   0.0000   0.0000   0.0000   0.0000
     0.0000   0.0000   0.0000   0.0000

          k = 0.2500 0.3672 0.0000 (  9294 PWs)   bands (ev):

   -31.1973 -15.7150 -15.6959 -11.6699 -11.4988 -11.4262  -7.6786  -7.5061
    -7.3079  -7.2224  -7.1524  -6.7953  -6.7795  -1.2863  -1.2850  -1.1279
    -1.0293  -0.8932  -0.8266   3.5871   4.0973   4.2819   4.7715   4.8406
     5.0310   5.1312   5.3425   5.7295   5.7789   6.1758   6.3722   6.4157
     6.4689   6.6578   6.8230   7.3097   7.4015   7.6627   7.9519   7.9536
     7.9957   8.2824   8.4527   8.4713   8.6012   8.7012   8.7457   8.9101
     9.0128   9.0236   9.2800   9.5038  10.5503  10.7058  11.1247  13.4221
    14.0729  14.6765  15.6053  15.6828  16.1827  16.4174  16.5859  16.7566
    16.8949  17.1090  17.3319  17.3750  17.8163  17.8457  18.3646  18.6074
    19.5908  19.6419  20.3436  20.6035  20.6353  21.1102  21.7760  22.0153
    22.8986  22.9032  23.7170  24.3519  24.4169  24.6524  24.8764  25.1843
    25.2053  25.7256  26.0387  26.2077  26.8175  27.0446  27.1846  27.5457
    27.9016  28.1969  28.6712  28.7663

     occupation numbers 
     1.0000   1.0000   1.0000   1.0000   1.0000   1.0000   1.0000   1.0000
     1.0000   1.0000   1.0000   1.0000   1.0000   1.0000   1.0000   1.0000
     1.0000   1.0000   1.0000   1.0000   1.0000   1.0000   1.0000   1.0000
     1.0000   1.0000   1.0000   1.0000   1.0000   1.0000   1.0000   1.0000
     1.0000   1.0000   1.0000   1.0000   1.0000   1.0000   1.0000   1.0000
     1.0000   1.0000   1.0000   1.0000   1.0000   1.0000   1.0000   1.0000
     1.0000   1.0000   1.0000   0.9902   0.0000   0.0000   0.0000   0.0000
     0.0000   0.0000   0.0000   0.0000   0.0000   0.0000   0.0000   0.0000
     0.0000   0.0000   0.0000   0.0000   0.0000   0.0000   0.0000   0.0000
     0.0000   0.0000   0.0000   0.0000   0.0000   0.0000   0.0000   0.0000
     0.0000   0.0000   0.0000   0.0000   0.0000   0.0000   0.0000   0.0000
     0.0000   0.0000   0.0000   0.0000   0.0000   0.0000   0.0000   0.0000
     0.0000   0.0000   0.0000   0.0000

          k = 0.2500 0.3672 0.0813 (  9302 PWs)   bands (ev):

   -31.1973 -15.7153 -15.6956 -11.6699 -11.4988 -11.4262  -7.6802  -7.5039
    -7.3082  -7.2151  -7.1604  -6.7977  -6.7768  -1.2869  -1.2836  -1.1257
    -1.0336  -0.8961  -0.8226   3.6030   4.0618   4.2951   4.7715   4.8387
     5.0375   5.1215   5.3576   5.6999   5.8333   6.1814   6.3258   6.3669
     6.5182   6.6503   6.7825   7.3780   7.4479   7.6723   7.8703   7.9790
     8.0185   8.2955   8.4322   8.5318   8.6049   8.6678   8.7706   8.9020
     8.9545   9.0465   9.2017   9.4948  10.5543  10.7025  11.1893  13.4562
    14.0489  14.6986  15.4629  15.6775  16.0957  16.4419  16.5719  16.8428
    16.9410  17.0391  17.3086  17.5338  17.7727  17.9522  18.4173  18.5666
    19.5845  19.7769  20.3052  20.4563  20.7454  20.9929  21.7266  22.0620
    22.6224  23.2257  23.5845  23.9020  24.3089  24.6885  24.8535  24.9925
    25.7554  25.9426  26.0717  26.3869  26.7157  27.1511  27.2635  27.7366
    27.9195  28.1457  28.4756  28.8908

     occupation numbers 
     1.0000   1.0000   1.0000   1.0000   1.0000   1.0000   1.0000   1.0000
     1.0000   1.0000   1.0000   1.0000   1.0000   1.0000   1.0000   1.0000
     1.0000   1.0000   1.0000   1.0000   1.0000   1.0000   1.0000   1.0000
     1.0000   1.0000   1.0000   1.0000   1.0000   1.0000   1.0000   1.0000
     1.0000   1.0000   1.0000   1.0000   1.0000   1.0000   1.0000   1.0000
     1.0000   1.0000   1.0000   1.0000   1.0000   1.0000   1.0000   1.0000
     1.0000   1.0000   1.0000   0.9924   0.0000   0.0000   0.0000   0.0000
     0.0000   0.0000   0.0000   0.0000   0.0000   0.0000   0.0000   0.0000
     0.0000   0.0000   0.0000   0.0000   0.0000   0.0000   0.0000   0.0000
     0.0000   0.0000   0.0000   0.0000   0.0000   0.0000   0.0000   0.0000
     0.0000   0.0000   0.0000   0.0000   0.0000   0.0000   0.0000   0.0000
     0.0000   0.0000   0.0000   0.0000   0.0000   0.0000   0.0000   0.0000
     0.0000   0.0000   0.0000   0.0000

          k = 0.2500 0.3672-0.1626 (  9296 PWs)   bands (ev):

   -31.1973 -15.7157 -15.6953 -11.6699 -11.4987 -11.4263  -7.6818  -7.5017
    -7.3084  -7.2046  -7.1715  -6.7996  -6.7746  -1.2878  -1.2819  -1.1233
    -1.0380  -0.8988  -0.8188   3.6208   4.0275   4.3053   4.7715   4.8370
     5.0439   5.1124   5.3728   5.6815   5.8840   6.1890   6.2543   6.3584
     6.5489   6.6304   6.7577   7.3884   7.5885   7.6887   7.7495   7.9784
     8.0571   8.3067   8.4233   8.6148   8.6194   8.6697   8.7260   8.8732
     8.8991   9.0555   9.1439   9.4879  10.5584  10.6994  11.2501  13.4942
    14.0211  14.7255  15.3358  15.6675  16.0461  16.3855  16.6324  16.8464
    16.9694  17.0602  17.3285  17.5247  17.8499  18.0307  18.4774  18.5316
    19.5691  20.0006  20.1411  20.4797  20.5772  21.1413  21.5181  22.1434
    22.4023  23.4596  23.4657  23.7771  24.1731  24.7185  24.8208  24.9575
    25.7212  25.9201  26.1243  26.6627  26.8958  27.3393  27.5195  27.6098
    27.9404  28.3573  28.4433  28.6638

     occupation numbers 
     1.0000   1.0000   1.0000   1.0000   1.0000   1.0000   1.0000   1.0000
     1.0000   1.0000   1.0000   1.0000   1.0000   1.0000   1.0000   1.0000
     1.0000   1.0000   1.0000   1.0000   1.0000   1.0000   1.0000   1.0000
     1.0000   1.0000   1.0000   1.0000   1.0000   1.0000   1.0000   1.0000
     1.0000   1.0000   1.0000   1.0000   1.0000   1.0000   1.0000   1.0000
     1.0000   1.0000   1.0000   1.0000   1.0000   1.0000   1.0000   1.0000
     1.0000   1.0000   1.0000   0.9938   0.0000   0.0000   0.0000   0.0000
     0.0000   0.0000   0.0000   0.0000   0.0000   0.0000   0.0000   0.0000
     0.0000   0.0000   0.0000   0.0000   0.0000   0.0000   0.0000   0.0000
     0.0000   0.0000   0.0000   0.0000   0.0000   0.0000   0.0000   0.0000
     0.0000   0.0000   0.0000   0.0000   0.0000   0.0000   0.0000   0.0000
     0.0000   0.0000   0.0000   0.0000   0.0000   0.0000   0.0000   0.0000
     0.0000   0.0000   0.0000   0.0000

          k = 0.2500 0.3672-0.0813 (  9302 PWs)   bands (ev):

   -31.1973 -15.7153 -15.6956 -11.6699 -11.4988 -11.4262  -7.6802  -7.5039
    -7.3082  -7.2151  -7.1604  -6.7977  -6.7768  -1.2869  -1.2836  -1.1257
    -1.0336  -0.8961  -0.8226   3.6030   4.0618   4.2951   4.7715   4.8387
     5.0375   5.1215   5.3576   5.6999   5.8333   6.1814   6.3258   6.3669
     6.5182   6.6503   6.7825   7.3780   7.4479   7.6723   7.8703   7.9790
     8.0185   8.2955   8.4322   8.5318   8.6049   8.6678   8.7706   8.9020
     8.9545   9.0465   9.2017   9.4948  10.5543  10.7025  11.1893  13.4562
    14.0489  14.6986  15.4629  15.6775  16.0957  16.4419  16.5719  16.8428
    16.9410  17.0391  17.3086  17.5338  17.7727  17.9522  18.4173  18.5666
    19.5845  19.7769  20.3052  20.4563  20.7454  20.9929  21.7266  22.0620
    22.6224  23.2257  23.5845  23.9020  24.3089  24.6885  24.8535  24.9925
    25.7554  25.9426  26.0717  26.3869  26.7157  27.1511  27.2635  27.7366
    27.9195  28.1457  28.4756  28.8908

     occupation numbers 
     1.0000   1.0000   1.0000   1.0000   1.0000   1.0000   1.0000   1.0000
     1.0000   1.0000   1.0000   1.0000   1.0000   1.0000   1.0000   1.0000
     1.0000   1.0000   1.0000   1.0000   1.0000   1.0000   1.0000   1.0000
     1.0000   1.0000   1.0000   1.0000   1.0000   1.0000   1.0000   1.0000
     1.0000   1.0000   1.0000   1.0000   1.0000   1.0000   1.0000   1.0000
     1.0000   1.0000   1.0000   1.0000   1.0000   1.0000   1.0000   1.0000
     1.0000   1.0000   1.0000   0.9924   0.0000   0.0000   0.0000   0.0000
     0.0000   0.0000   0.0000   0.0000   0.0000   0.0000   0.0000   0.0000
     0.0000   0.0000   0.0000   0.0000   0.0000   0.0000   0.0000   0.0000
     0.0000   0.0000   0.0000   0.0000   0.0000   0.0000   0.0000   0.0000
     0.0000   0.0000   0.0000   0.0000   0.0000   0.0000   0.0000   0.0000
     0.0000   0.0000   0.0000   0.0000   0.0000   0.0000   0.0000   0.0000
     0.0000   0.0000   0.0000   0.0000

          k = 0.2500-0.4896 0.0000 (  9284 PWs)   bands (ev):

   -31.1957 -15.7004 -15.6816 -11.7365 -11.4945 -11.3922  -7.7334  -7.3177
    -7.2909  -7.2755  -6.9994  -6.9624  -6.7911  -1.2406  -1.1937  -1.1711
    -1.1468  -0.9742  -0.9196   3.4417   3.9638   4.0593   4.7532   4.8610
     4.9841   5.0197   5.2545   5.7441   5.7649   6.1962   6.3255   6.3473
     6.4932   6.5725   6.7985   7.3215   7.4300   7.6752   7.9869   8.1136
     8.1423   8.3194   8.4713   8.4884   8.5454   8.7129   8.9247   9.0324
     9.0925   9.1513   9.1986   9.4371  10.6492  10.7859  11.2815  13.3450
    14.0169  14.6953  15.4771  16.1367  16.3237  16.5585  16.6071  16.8834
    16.9878  16.9900  17.2049  17.7974  17.9075  17.9534  18.3642  18.8100
    19.6872  19.8930  20.4112  21.0427  21.0937  21.3344  21.7666  21.9993
    22.4826  22.7562  23.5722  23.7306  23.8109  23.8523  24.5725  24.6244
    25.2161  25.7016  26.0113  26.4190  26.8129  26.9476  27.0615  27.7796
    28.0448  28.2112  28.8243  29.1018

     occupation numbers 
     1.0000   1.0000   1.0000   1.0000   1.0000   1.0000   1.0000   1.0000
     1.0000   1.0000   1.0000   1.0000   1.0000   1.0000   1.0000   1.0000
     1.0000   1.0000   1.0000   1.0000   1.0000   1.0000   1.0000   1.0000
     1.0000   1.0000   1.0000   1.0000   1.0000   1.0000   1.0000   1.0000
     1.0000   1.0000   1.0000   1.0000   1.0000   1.0000   1.0000   1.0000
     1.0000   1.0000   1.0000   1.0000   1.0000   1.0000   1.0000   1.0000
     1.0000   1.0000   1.0000   0.9988   0.0000   0.0000   0.0000   0.0000
     0.0000   0.0000   0.0000   0.0000   0.0000   0.0000   0.0000   0.0000
     0.0000   0.0000   0.0000   0.0000   0.0000   0.0000   0.0000   0.0000
     0.0000   0.0000   0.0000   0.0000   0.0000   0.0000   0.0000   0.0000
     0.0000   0.0000   0.0000   0.0000   0.0000   0.0000   0.0000   0.0000
     0.0000   0.0000   0.0000   0.0000   0.0000   0.0000   0.0000   0.0000
     0.0000   0.0000   0.0000   0.0000

          k = 0.2500-0.4896 0.0813 (  9296 PWs)   bands (ev):

   -31.1957 -15.7007 -15.6813 -11.7365 -11.4945 -11.3922  -7.7349  -7.3171
    -7.2913  -7.2668  -6.9995  -6.9777  -6.7829  -1.2401  -1.1942  -1.1672
    -1.1508  -0.9787  -0.9151   3.4592   3.9135   4.0859   4.7539   4.8532
     4.9718   5.0326   5.2727   5.7230   5.8152   6.1986   6.2606   6.3181
     6.5392   6.5761   6.7554   7.3787   7.4811   7.6839   7.9118   8.1392
     8.1615   8.3480   8.4758   8.5259   8.5287   8.7075   8.9425   8.9794
     9.0157   9.1642   9.1656   9.4315  10.6531  10.7814  11.3581  13.3587
    13.9810  14.7821  15.5124  15.8275  16.2333  16.4302  16.6636  16.8966
    16.9642  17.2851  17.3106  17.6862  17.9549  18.0749  18.3774  18.8120
    19.6877  20.0083  20.4547  20.9645  20.9812  21.2584  21.7939  22.0058
    22.4887  22.6110  23.3992  23.6084  23.8846  24.0800  24.1432  24.5676
    25.3904  25.9011  26.2917  26.5158  26.6064  26.9408  27.5162  27.9036
    28.0655  28.0948  28.6655  29.0406

     occupation numbers 
     1.0000   1.0000   1.0000   1.0000   1.0000   1.0000   1.0000   1.0000
     1.0000   1.0000   1.0000   1.0000   1.0000   1.0000   1.0000   1.0000
     1.0000   1.0000   1.0000   1.0000   1.0000   1.0000   1.0000   1.0000
     1.0000   1.0000   1.0000   1.0000   1.0000   1.0000   1.0000   1.0000
     1.0000   1.0000   1.0000   1.0000   1.0000   1.0000   1.0000   1.0000
     1.0000   1.0000   1.0000   1.0000   1.0000   1.0000   1.0000   1.0000
     1.0000   1.0000   1.0000   0.9990   0.0000   0.0000   0.0000   0.0000
     0.0000   0.0000   0.0000   0.0000   0.0000   0.0000   0.0000   0.0000
     0.0000   0.0000   0.0000   0.0000   0.0000   0.0000   0.0000   0.0000
     0.0000   0.0000   0.0000   0.0000   0.0000   0.0000   0.0000   0.0000
     0.0000   0.0000   0.0000   0.0000   0.0000   0.0000   0.0000   0.0000
     0.0000   0.0000   0.0000   0.0000   0.0000   0.0000   0.0000   0.0000
     0.0000   0.0000   0.0000   0.0000

          k = 0.2500-0.4896-0.1626 (  9260 PWs)   bands (ev):

   -31.1956 -15.7010 -15.6810 -11.7365 -11.4945 -11.3922  -7.7364  -7.3165
    -7.2916  -7.2576  -6.9997  -6.9927  -6.7757  -1.2397  -1.1947  -1.1629
    -1.1550  -0.9834  -0.9108   3.4791   3.8715   4.1020   4.7547   4.8463
     4.9605   5.0444   5.2905   5.7103   5.8682   6.1807   6.2006   6.3112
     6.5667   6.5822   6.7172   7.3954   7.6081   7.6924   7.7995   8.1361
     8.2111   8.4049   8.4314   8.5105   8.7009   8.7024   8.7253   8.9743
     8.9858   9.1557   9.1761   9.4258  10.6569  10.7774  11.4312  13.3739
    13.9429  14.9117  15.5378  15.5548  16.1927  16.3151  16.7121  16.8609
    16.9975  17.3372  17.5353  17.5605  18.1114  18.1117  18.3896  18.8023
    19.6885  20.1622  20.5884  20.7937  20.8380  21.1731  21.8856  22.0358
    22.1119  22.7235  23.2959  23.6106  23.9176  23.9622  24.3039  24.4373
    25.4094  25.7881  26.2178  26.4744  26.9509  27.4009  27.8742  27.9301
    28.0799  28.3649  28.5026  28.5088

     occupation numbers 
     1.0000   1.0000   1.0000   1.0000   1.0000   1.0000   1.0000   1.0000
     1.0000   1.0000   1.0000   1.0000   1.0000   1.0000   1.0000   1.0000
     1.0000   1.0000   1.0000   1.0000   1.0000   1.0000   1.0000   1.0000
     1.0000   1.0000   1.0000   1.0000   1.0000   1.0000   1.0000   1.0000
     1.0000   1.0000   1.0000   1.0000   1.0000   1.0000   1.0000   1.0000
     1.0000   1.0000   1.0000   1.0000   1.0000   1.0000   1.0000   1.0000
     1.0000   1.0000   1.0000   0.9992   0.0000   0.0000   0.0000   0.0000
     0.0000   0.0000   0.0000   0.0000   0.0000   0.0000   0.0000   0.0000
     0.0000   0.0000   0.0000   0.0000   0.0000   0.0000   0.0000   0.0000
     0.0000   0.0000   0.0000   0.0000   0.0000   0.0000   0.0000   0.0000
     0.0000   0.0000   0.0000   0.0000   0.0000   0.0000   0.0000   0.0000
     0.0000   0.0000   0.0000   0.0000   0.0000   0.0000   0.0000   0.0000
     0.0000   0.0000   0.0000   0.0000

          k = 0.2500-0.4896-0.0813 (  9296 PWs)   bands (ev):

   -31.1957 -15.7007 -15.6813 -11.7365 -11.4945 -11.3922  -7.7349  -7.3171
    -7.2913  -7.2668  -6.9995  -6.9777  -6.7829  -1.2401  -1.1942  -1.1672
    -1.1508  -0.9787  -0.9151   3.4592   3.9135   4.0859   4.7539   4.8532
     4.9718   5.0326   5.2727   5.7230   5.8152   6.1986   6.2606   6.3181
     6.5392   6.5761   6.7554   7.3787   7.4811   7.6839   7.9118   8.1392
     8.1615   8.3480   8.4758   8.5259   8.5287   8.7075   8.9425   8.9794
     9.0157   9.1642   9.1656   9.4315  10.6531  10.7814  11.3581  13.3587
    13.9810  14.7821  15.5124  15.8275  16.2333  16.4302  16.6636  16.8966
    16.9642  17.2851  17.3106  17.6862  17.9549  18.0749  18.3774  18.8120
    19.6877  20.0083  20.4547  20.9645  20.9812  21.2584  21.7939  22.0058
    22.4887  22.6110  23.3992  23.6084  23.8846  24.0800  24.1432  24.5676
    25.3904  25.9011  26.2917  26.5158  26.6064  26.9408  27.5162  27.9036
    28.0655  28.0948  28.6655  29.0406

     occupation numbers 
     1.0000   1.0000   1.0000   1.0000   1.0000   1.0000   1.0000   1.0000
     1.0000   1.0000   1.0000   1.0000   1.0000   1.0000   1.0000   1.0000
     1.0000   1.0000   1.0000   1.0000   1.0000   1.0000   1.0000   1.0000
     1.0000   1.0000   1.0000   1.0000   1.0000   1.0000   1.0000   1.0000
     1.0000   1.0000   1.0000   1.0000   1.0000   1.0000   1.0000   1.0000
     1.0000   1.0000   1.0000   1.0000   1.0000   1.0000   1.0000   1.0000
     1.0000   1.0000   1.0000   0.9990   0.0000   0.0000   0.0000   0.0000
     0.0000   0.0000   0.0000   0.0000   0.0000   0.0000   0.0000   0.0000
     0.0000   0.0000   0.0000   0.0000   0.0000   0.0000   0.0000   0.0000
     0.0000   0.0000   0.0000   0.0000   0.0000   0.0000   0.0000   0.0000
     0.0000   0.0000   0.0000   0.0000   0.0000   0.0000   0.0000   0.0000
     0.0000   0.0000   0.0000   0.0000   0.0000   0.0000   0.0000   0.0000
     0.0000   0.0000   0.0000   0.0000

          k = 0.2500-0.3672 0.0000 (  9294 PWs)   bands (ev):

   -31.1973 -15.7150 -15.6959 -11.6699 -11.4988 -11.4262  -7.6786  -7.5061
    -7.3079  -7.2224  -7.1524  -6.7953  -6.7795  -1.2863  -1.2850  -1.1279
    -1.0293  -0.8932  -0.8266   3.5871   4.0973   4.2819   4.7715   4.8406
     5.0310   5.1312   5.3425   5.7295   5.7789   6.1758   6.3722   6.4157
     6.4689   6.6578   6.8230   7.3097   7.4015   7.6627   7.9519   7.9536
     7.9957   8.2824   8.4527   8.4713   8.6012   8.7012   8.7457   8.9101
     9.0128   9.0236   9.2800   9.5038  10.5503  10.7058  11.1247  13.4221
    14.0729  14.6765  15.6053  15.6828  16.1827  16.4174  16.5859  16.7566
    16.8949  17.1090  17.3319  17.3750  17.8163  17.8457  18.3646  18.6074
    19.5908  19.6419  20.3436  20.6035  20.6353  21.1102  21.7760  22.0153
    22.8986  22.9032  23.7170  24.3519  24.4169  24.6524  24.8764  25.1843
    25.2053  25.7256  26.0387  26.2077  26.8175  27.0446  27.1846  27.5457
    27.9016  28.1969  28.6712  28.7663

     occupation numbers 
     1.0000   1.0000   1.0000   1.0000   1.0000   1.0000   1.0000   1.0000
     1.0000   1.0000   1.0000   1.0000   1.0000   1.0000   1.0000   1.0000
     1.0000   1.0000   1.0000   1.0000   1.0000   1.0000   1.0000   1.0000
     1.0000   1.0000   1.0000   1.0000   1.0000   1.0000   1.0000   1.0000
     1.0000   1.0000   1.0000   1.0000   1.0000   1.0000   1.0000   1.0000
     1.0000   1.0000   1.0000   1.0000   1.0000   1.0000   1.0000   1.0000
     1.0000   1.0000   1.0000   0.9902   0.0000   0.0000   0.0000   0.0000
     0.0000   0.0000   0.0000   0.0000   0.0000   0.0000   0.0000   0.0000
     0.0000   0.0000   0.0000   0.0000   0.0000   0.0000   0.0000   0.0000
     0.0000   0.0000   0.0000   0.0000   0.0000   0.0000   0.0000   0.0000
     0.0000   0.0000   0.0000   0.0000   0.0000   0.0000   0.0000   0.0000
     0.0000   0.0000   0.0000   0.0000   0.0000   0.0000   0.0000   0.0000
     0.0000   0.0000   0.0000   0.0000

          k = 0.2500-0.3672 0.0813 (  9302 PWs)   bands (ev):

   -31.1973 -15.7153 -15.6956 -11.6699 -11.4988 -11.4262  -7.6802  -7.5039
    -7.3082  -7.2151  -7.1604  -6.7977  -6.7768  -1.2869  -1.2836  -1.1257
    -1.0336  -0.8961  -0.8226   3.6030   4.0618   4.2951   4.7715   4.8387
     5.0375   5.1215   5.3576   5.6999   5.8333   6.1814   6.3258   6.3669
     6.5182   6.6503   6.7825   7.3780   7.4479   7.6723   7.8703   7.9790
     8.0185   8.2955   8.4322   8.5318   8.6049   8.6678   8.7706   8.9020
     8.9545   9.0465   9.2017   9.4948  10.5543  10.7025  11.1893  13.4562
    14.0489  14.6986  15.4629  15.6775  16.0957  16.4419  16.5719  16.8428
    16.9410  17.0391  17.3086  17.5338  17.7727  17.9522  18.4173  18.5666
    19.5845  19.7769  20.3052  20.4563  20.7454  20.9929  21.7266  22.0620
    22.6224  23.2257  23.5845  23.9020  24.3089  24.6885  24.8535  24.9925
    25.7554  25.9426  26.0717  26.3869  26.7157  27.1511  27.2635  27.7366
    27.9195  28.1457  28.4756  28.8908

     occupation numbers 
     1.0000   1.0000   1.0000   1.0000   1.0000   1.0000   1.0000   1.0000
     1.0000   1.0000   1.0000   1.0000   1.0000   1.0000   1.0000   1.0000
     1.0000   1.0000   1.0000   1.0000   1.0000   1.0000   1.0000   1.0000
     1.0000   1.0000   1.0000   1.0000   1.0000   1.0000   1.0000   1.0000
     1.0000   1.0000   1.0000   1.0000   1.0000   1.0000   1.0000   1.0000
     1.0000   1.0000   1.0000   1.0000   1.0000   1.0000   1.0000   1.0000
     1.0000   1.0000   1.0000   0.9924   0.0000   0.0000   0.0000   0.0000
     0.0000   0.0000   0.0000   0.0000   0.0000   0.0000   0.0000   0.0000
     0.0000   0.0000   0.0000   0.0000   0.0000   0.0000   0.0000   0.0000
     0.0000   0.0000   0.0000   0.0000   0.0000   0.0000   0.0000   0.0000
     0.0000   0.0000   0.0000   0.0000   0.0000   0.0000   0.0000   0.0000
     0.0000   0.0000   0.0000   0.0000   0.0000   0.0000   0.0000   0.0000
     0.0000   0.0000   0.0000   0.0000

          k = 0.2500-0.3672-0.1626 (  9296 PWs)   bands (ev):

   -31.1973 -15.7157 -15.6953 -11.6699 -11.4987 -11.4263  -7.6818  -7.5017
    -7.3084  -7.2046  -7.1715  -6.7996  -6.7746  -1.2878  -1.2819  -1.1233
    -1.0380  -0.8988  -0.8188   3.6208   4.0275   4.3053   4.7715   4.8370
     5.0439   5.1124   5.3728   5.6815   5.8840   6.1890   6.2543   6.3584
     6.5489   6.6304   6.7577   7.3884   7.5885   7.6887   7.7495   7.9784
     8.0571   8.3067   8.4233   8.6148   8.6194   8.6697   8.7260   8.8732
     8.8991   9.0555   9.1439   9.4879  10.5584  10.6994  11.2501  13.4942
    14.0211  14.7255  15.3358  15.6675  16.0461  16.3855  16.6324  16.8464
    16.9694  17.0602  17.3285  17.5247  17.8499  18.0307  18.4774  18.5316
    19.5691  20.0006  20.1411  20.4797  20.5772  21.1413  21.5181  22.1434
    22.4023  23.4596  23.4657  23.7771  24.1731  24.7185  24.8208  24.9575
    25.7212  25.9201  26.1243  26.6627  26.8958  27.3393  27.5195  27.6098
    27.9404  28.3573  28.4433  28.6638

     occupation numbers 
     1.0000   1.0000   1.0000   1.0000   1.0000   1.0000   1.0000   1.0000
     1.0000   1.0000   1.0000   1.0000   1.0000   1.0000   1.0000   1.0000
     1.0000   1.0000   1.0000   1.0000   1.0000   1.0000   1.0000   1.0000
     1.0000   1.0000   1.0000   1.0000   1.0000   1.0000   1.0000   1.0000
     1.0000   1.0000   1.0000   1.0000   1.0000   1.0000   1.0000   1.0000
     1.0000   1.0000   1.0000   1.0000   1.0000   1.0000   1.0000   1.0000
     1.0000   1.0000   1.0000   0.9938   0.0000   0.0000   0.0000   0.0000
     0.0000   0.0000   0.0000   0.0000   0.0000   0.0000   0.0000   0.0000
     0.0000   0.0000   0.0000   0.0000   0.0000   0.0000   0.0000   0.0000
     0.0000   0.0000   0.0000   0.0000   0.0000   0.0000   0.0000   0.0000
     0.0000   0.0000   0.0000   0.0000   0.0000   0.0000   0.0000   0.0000
     0.0000   0.0000   0.0000   0.0000   0.0000   0.0000   0.0000   0.0000
     0.0000   0.0000   0.0000   0.0000

          k = 0.2500-0.3672-0.0813 (  9302 PWs)   bands (ev):

   -31.1973 -15.7153 -15.6956 -11.6699 -11.4988 -11.4262  -7.6802  -7.5039
    -7.3082  -7.2151  -7.1604  -6.7977  -6.7768  -1.2869  -1.2836  -1.1257
    -1.0336  -0.8961  -0.8226   3.6030   4.0618   4.2951   4.7715   4.8387
     5.0375   5.1215   5.3576   5.6999   5.8333   6.1814   6.3258   6.3669
     6.5182   6.6503   6.7825   7.3780   7.4479   7.6723   7.8703   7.9790
     8.0185   8.2955   8.4322   8.5318   8.6049   8.6678   8.7706   8.9020
     8.9545   9.0465   9.2017   9.4948  10.5543  10.7025  11.1893  13.4562
    14.0489  14.6986  15.4629  15.6775  16.0957  16.4419  16.5719  16.8428
    16.9410  17.0391  17.3086  17.5338  17.7727  17.9522  18.4173  18.5666
    19.5845  19.7769  20.3052  20.4563  20.7454  20.9929  21.7266  22.0620
    22.6224  23.2257  23.5845  23.9020  24.3089  24.6885  24.8535  24.9925
    25.7554  25.9426  26.0717  26.3869  26.7157  27.1511  27.2635  27.7366
    27.9195  28.1457  28.4756  28.8908

     occupation numbers 
     1.0000   1.0000   1.0000   1.0000   1.0000   1.0000   1.0000   1.0000
     1.0000   1.0000   1.0000   1.0000   1.0000   1.0000   1.0000   1.0000
     1.0000   1.0000   1.0000   1.0000   1.0000   1.0000   1.0000   1.0000
     1.0000   1.0000   1.0000   1.0000   1.0000   1.0000   1.0000   1.0000
     1.0000   1.0000   1.0000   1.0000   1.0000   1.0000   1.0000   1.0000
     1.0000   1.0000   1.0000   1.0000   1.0000   1.0000   1.0000   1.0000
     1.0000   1.0000   1.0000   0.9924   0.0000   0.0000   0.0000   0.0000
     0.0000   0.0000   0.0000   0.0000   0.0000   0.0000   0.0000   0.0000
     0.0000   0.0000   0.0000   0.0000   0.0000   0.0000   0.0000   0.0000
     0.0000   0.0000   0.0000   0.0000   0.0000   0.0000   0.0000   0.0000
     0.0000   0.0000   0.0000   0.0000   0.0000   0.0000   0.0000   0.0000
     0.0000   0.0000   0.0000   0.0000   0.0000   0.0000   0.0000   0.0000
     0.0000   0.0000   0.0000   0.0000

          k = 0.2500-0.2448 0.0000 (  9303 PWs)   bands (ev):

   -31.2014 -15.7499 -15.7301 -11.5201 -11.5045 -11.4860  -7.7772  -7.5836
    -7.3978  -7.3131  -7.1632  -6.7552  -6.6434  -1.2664  -1.2189  -1.0885
    -1.0387  -0.6846  -0.6599   3.9431   4.3617   4.8474   4.8731   4.8798
     5.0680   5.5059   5.5890   5.6488   5.8558   6.2181   6.3320   6.5168
     6.6069   6.8688   6.9316   7.2555   7.3791   7.5361   7.6344   7.8436
     7.8458   8.2236   8.3134   8.3775   8.4340   8.4417   8.7137   8.7554
     8.8097   8.8390   9.3469   9.5093  10.1850  10.3888  10.6179  13.5690
    14.1538  14.4908  15.1688  15.8608  16.0140  16.0919  16.3790  16.5059
    16.5729  16.6344  17.0687  17.5990  17.6334  17.7291  18.2623  18.8715
    19.0647  19.5264  20.0583  20.1921  20.3128  21.0712  21.7278  21.9027
    22.7705  23.1992  23.9730  24.4541  24.5019  24.7600  25.0828  25.6439
    26.0270  26.2736  26.4125  26.6528  27.1775  27.3180  27.3398  27.5770
    28.0337  28.3985  28.6202  28.6398

     occupation numbers 
     1.0000   1.0000   1.0000   1.0000   1.0000   1.0000   1.0000   1.0000
     1.0000   1.0000   1.0000   1.0000   1.0000   1.0000   1.0000   1.0000
     1.0000   1.0000   1.0000   1.0000   1.0000   1.0000   1.0000   1.0000
     1.0000   1.0000   1.0000   1.0000   1.0000   1.0000   1.0000   1.0000
     1.0000   1.0000   1.0000   1.0000   1.0000   1.0000   1.0000   1.0000
     1.0000   1.0000   1.0000   1.0000   1.0000   1.0000   1.0000   1.0000
     1.0000   1.0000   1.0000   0.9886   0.0000   0.0000   0.0000   0.0000
     0.0000   0.0000   0.0000   0.0000   0.0000   0.0000   0.0000   0.0000
     0.0000   0.0000   0.0000   0.0000   0.0000   0.0000   0.0000   0.0000
     0.0000   0.0000   0.0000   0.0000   0.0000   0.0000   0.0000   0.0000
     0.0000   0.0000   0.0000   0.0000   0.0000   0.0000   0.0000   0.0000
     0.0000   0.0000   0.0000   0.0000   0.0000   0.0000   0.0000   0.0000
     0.0000   0.0000   0.0000   0.0000

          k = 0.2500-0.2448 0.0813 (  9296 PWs)   bands (ev):

   -31.2014 -15.7502 -15.7298 -11.5201 -11.5045 -11.4860  -7.7763  -7.5860
    -7.3965  -7.3117  -7.1635  -6.7576  -6.6420  -1.2645  -1.2209  -1.0857
    -1.0411  -0.6884  -0.6564   3.9570   4.3417   4.8497   4.8645   4.8889
     5.0686   5.5027   5.5932   5.6284   5.8966   6.2262   6.3414   6.5019
     6.5718   6.7902   6.9340   7.3782   7.3896   7.5455   7.6331   7.7773
     7.8955   8.2288   8.2927   8.4169   8.4286   8.4554   8.6521   8.7844
     8.8059   8.8617   9.2733   9.4800  10.1940  10.3831  10.6647  13.5982
    14.1219  14.5027  15.2483  15.7743  15.9199  16.0949  16.2065  16.3812
    16.6879  16.7847  17.2136  17.5576  17.6384  17.8044  18.3549  18.7632
    19.1554  19.5295  19.9203  20.1203  20.4270  21.1711  21.8264  21.8984
    22.5230  23.0530  23.5150  24.1130  24.5937  25.0247  25.6443  25.8784
    26.0002  26.3412  26.5879  26.6931  27.0997  27.2109  27.4064  27.4992
    27.9344  28.4170  28.6721  28.7456

     occupation numbers 
     1.0000   1.0000   1.0000   1.0000   1.0000   1.0000   1.0000   1.0000
     1.0000   1.0000   1.0000   1.0000   1.0000   1.0000   1.0000   1.0000
     1.0000   1.0000   1.0000   1.0000   1.0000   1.0000   1.0000   1.0000
     1.0000   1.0000   1.0000   1.0000   1.0000   1.0000   1.0000   1.0000
     1.0000   1.0000   1.0000   1.0000   1.0000   1.0000   1.0000   1.0000
     1.0000   1.0000   1.0000   1.0000   1.0000   1.0000   1.0000   1.0000
     1.0000   1.0000   1.0000   0.9951   0.0000   0.0000   0.0000   0.0000
     0.0000   0.0000   0.0000   0.0000   0.0000   0.0000   0.0000   0.0000
     0.0000   0.0000   0.0000   0.0000   0.0000   0.0000   0.0000   0.0000
     0.0000   0.0000   0.0000   0.0000   0.0000   0.0000   0.0000   0.0000
     0.0000   0.0000   0.0000   0.0000   0.0000   0.0000   0.0000   0.0000
     0.0000   0.0000   0.0000   0.0000   0.0000   0.0000   0.0000   0.0000
     0.0000   0.0000   0.0000   0.0000

          k = 0.2500-0.2448-0.1626 (  9288 PWs)   bands (ev):

   -31.2014 -15.7506 -15.7294 -11.5201 -11.5046 -11.4860  -7.7753  -7.5885
    -7.3952  -7.3103  -7.1637  -6.7599  -6.6407  -1.2626  -1.2230  -1.0827
    -1.0438  -0.6916  -0.6536   3.9725   4.3202   4.8547   4.8571   4.8942
     5.0691   5.4994   5.6044   5.6046   5.9369   6.2347   6.3684   6.4530
     6.5431   6.7417   6.9366   7.3807   7.5550   7.5581   7.6032   7.6926
     7.9304   8.2329   8.2836   8.4215   8.4376   8.5164   8.5747   8.7911
     8.8024   8.8979   9.1793   9.4620  10.2030  10.3777  10.7068  13.6313
    14.0857  14.5150  15.3967  15.6284  15.8046  16.0410  16.1709  16.3377
    16.7715  16.8417  17.3536  17.4688  17.6778  17.8791  18.4796  18.6587
    19.2020  19.6302  19.6582  20.2095  20.3884  21.5037  21.7564  21.9874
    22.0284  23.0339  23.1783  24.1366  24.8320  24.8368  25.7302  26.0755
    26.1446  26.3428  26.6864  26.9861  27.0901  27.1459  27.4687  27.5189
    27.9366  28.2366  28.7598  28.8595

     occupation numbers 
     1.0000   1.0000   1.0000   1.0000   1.0000   1.0000   1.0000   1.0000
     1.0000   1.0000   1.0000   1.0000   1.0000   1.0000   1.0000   1.0000
     1.0000   1.0000   1.0000   1.0000   1.0000   1.0000   1.0000   1.0000
     1.0000   1.0000   1.0000   1.0000   1.0000   1.0000   1.0000   1.0000
     1.0000   1.0000   1.0000   1.0000   1.0000   1.0000   1.0000   1.0000
     1.0000   1.0000   1.0000   1.0000   1.0000   1.0000   1.0000   1.0000
     1.0000   1.0000   1.0000   0.9972   0.0000   0.0000   0.0000   0.0000
     0.0000   0.0000   0.0000   0.0000   0.0000   0.0000   0.0000   0.0000
     0.0000   0.0000   0.0000   0.0000   0.0000   0.0000   0.0000   0.0000
     0.0000   0.0000   0.0000   0.0000   0.0000   0.0000   0.0000   0.0000
     0.0000   0.0000   0.0000   0.0000   0.0000   0.0000   0.0000   0.0000
     0.0000   0.0000   0.0000   0.0000   0.0000   0.0000   0.0000   0.0000
     0.0000   0.0000   0.0000   0.0000

          k = 0.2500-0.2448-0.0813 (  9296 PWs)   bands (ev):

   -31.2014 -15.7502 -15.7298 -11.5201 -11.5045 -11.4860  -7.7763  -7.5860
    -7.3965  -7.3117  -7.1635  -6.7576  -6.6420  -1.2645  -1.2209  -1.0857
    -1.0411  -0.6884  -0.6564   3.9570   4.3417   4.8497   4.8645   4.8889
     5.0686   5.5027   5.5932   5.6284   5.8966   6.2262   6.3414   6.5019
     6.5718   6.7902   6.9340   7.3782   7.3896   7.5455   7.6331   7.7773
     7.8955   8.2288   8.2927   8.4169   8.4286   8.4554   8.6521   8.7844
     8.8059   8.8617   9.2733   9.4800  10.1940  10.3831  10.6647  13.5982
    14.1219  14.5027  15.2483  15.7743  15.9199  16.0949  16.2065  16.3812
    16.6879  16.7847  17.2136  17.5576  17.6384  17.8044  18.3549  18.7632
    19.1554  19.5295  19.9203  20.1203  20.4270  21.1711  21.8264  21.8984
    22.5230  23.0530  23.5150  24.1130  24.5937  25.0247  25.6443  25.8784
    26.0002  26.3412  26.5879  26.6931  27.0997  27.2109  27.4064  27.4992
    27.9344  28.4170  28.6721  28.7456

     occupation numbers 
     1.0000   1.0000   1.0000   1.0000   1.0000   1.0000   1.0000   1.0000
     1.0000   1.0000   1.0000   1.0000   1.0000   1.0000   1.0000   1.0000
     1.0000   1.0000   1.0000   1.0000   1.0000   1.0000   1.0000   1.0000
     1.0000   1.0000   1.0000   1.0000   1.0000   1.0000   1.0000   1.0000
     1.0000   1.0000   1.0000   1.0000   1.0000   1.0000   1.0000   1.0000
     1.0000   1.0000   1.0000   1.0000   1.0000   1.0000   1.0000   1.0000
     1.0000   1.0000   1.0000   0.9951   0.0000   0.0000   0.0000   0.0000
     0.0000   0.0000   0.0000   0.0000   0.0000   0.0000   0.0000   0.0000
     0.0000   0.0000   0.0000   0.0000   0.0000   0.0000   0.0000   0.0000
     0.0000   0.0000   0.0000   0.0000   0.0000   0.0000   0.0000   0.0000
     0.0000   0.0000   0.0000   0.0000   0.0000   0.0000   0.0000   0.0000
     0.0000   0.0000   0.0000   0.0000   0.0000   0.0000   0.0000   0.0000
     0.0000   0.0000   0.0000   0.0000

          k = 0.2500-0.1224 0.0000 (  9283 PWs)   bands (ev):

   -31.2054 -15.7841 -15.7638 -11.5780 -11.5235 -11.2988  -8.0310  -7.5698
    -7.5361  -7.2393  -7.1999  -6.7349  -6.5427  -1.2414  -1.0569  -0.9992
    -0.9410  -0.6135  -0.5965   4.2648   4.4818   4.9961   5.0209   5.1262
     5.4008   5.7108   5.9968   6.0492   6.1285   6.2263   6.2497   6.5370
     6.8893   6.9003   7.2290   7.2850   7.3488   7.3521   7.4150   7.6261
     7.8195   7.9424   8.0294   8.2625   8.2815   8.3976   8.5050   8.5438
     8.8290   8.8537   9.2307   9.4129   9.5105   9.8622   9.8672  13.5348
    13.8216  14.7448  15.2464  15.2497  15.4642  16.1752  16.3036  16.5037
    16.5404  16.8937  16.9520  17.5987  17.6109  17.8214  18.4642  18.5821
    18.6577  18.7937  19.6205  19.9053  20.6829  21.0882  21.9801  22.3179
    22.7076  23.0124  23.8979  24.0041  24.1633  24.4838  25.0575  25.1335
    26.0455  26.3529  26.7044  27.0046  27.0531  27.5729  27.8048  28.0102
    28.1193  28.2457  28.8469  29.1479

     occupation numbers 
     1.0000   1.0000   1.0000   1.0000   1.0000   1.0000   1.0000   1.0000
     1.0000   1.0000   1.0000   1.0000   1.0000   1.0000   1.0000   1.0000
     1.0000   1.0000   1.0000   1.0000   1.0000   1.0000   1.0000   1.0000
     1.0000   1.0000   1.0000   1.0000   1.0000   1.0000   1.0000   1.0000
     1.0000   1.0000   1.0000   1.0000   1.0000   1.0000   1.0000   1.0000
     1.0000   1.0000   1.0000   1.0000   1.0000   1.0000   1.0000   1.0000
     1.0000   1.0000   1.0000   0.9995   0.9883   0.0822   0.0747   0.0000
     0.0000   0.0000   0.0000   0.0000   0.0000   0.0000   0.0000   0.0000
     0.0000   0.0000   0.0000   0.0000   0.0000   0.0000   0.0000   0.0000
     0.0000   0.0000   0.0000   0.0000   0.0000   0.0000   0.0000   0.0000
     0.0000   0.0000   0.0000   0.0000   0.0000   0.0000   0.0000   0.0000
     0.0000   0.0000   0.0000   0.0000   0.0000   0.0000   0.0000   0.0000
     0.0000   0.0000   0.0000   0.0000

          k = 0.2500-0.1224 0.0813 (  9294 PWs)   bands (ev):

   -31.2054 -15.7845 -15.7634 -11.5780 -11.5235 -11.2989  -8.0305  -7.5795
    -7.5251  -7.2380  -7.2030  -6.7365  -6.5410  -1.2374  -1.0623  -1.0009
    -0.9382  -0.6155  -0.5946   4.2776   4.4719   4.9856   5.0392   5.1101
     5.4099   5.6990   6.0117   6.0386   6.1363   6.2326   6.2690   6.5428
     6.7481   6.9333   7.2193   7.2991   7.3533   7.4033   7.4549   7.6089
     7.8392   7.9494   8.0277   8.2612   8.2926   8.3895   8.4921   8.5381
     8.8343   8.8779   9.1994   9.3427   9.5566   9.7779   9.9539  13.5540
    13.8291  14.7520  15.1418  15.2712  15.5426  15.9830  16.2569  16.5263
    16.6786  16.7949  17.1491  17.5485  17.6552  17.7963  18.4554  18.5153
    18.7366  18.9454  19.5408  20.0491  20.5300  21.1391  22.0043  22.1429
    22.7609  22.8784  23.2087  24.0184  24.1964  24.9668  25.0770  25.5231
    26.0687  26.3692  26.7291  26.8078  27.1429  27.6792  27.8118  28.0366
    28.2135  28.3673  28.9391  29.0465

     occupation numbers 
     1.0000   1.0000   1.0000   1.0000   1.0000   1.0000   1.0000   1.0000
     1.0000   1.0000   1.0000   1.0000   1.0000   1.0000   1.0000   1.0000
     1.0000   1.0000   1.0000   1.0000   1.0000   1.0000   1.0000   1.0000
     1.0000   1.0000   1.0000   1.0000   1.0000   1.0000   1.0000   1.0000
     1.0000   1.0000   1.0000   1.0000   1.0000   1.0000   1.0000   1.0000
     1.0000   1.0000   1.0000   1.0000   1.0000   1.0000   1.0000   1.0000
     1.0000   1.0000   1.0000   1.0000   0.9630   0.3036   0.0096   0.0000
     0.0000   0.0000   0.0000   0.0000   0.0000   0.0000   0.0000   0.0000
     0.0000   0.0000   0.0000   0.0000   0.0000   0.0000   0.0000   0.0000
     0.0000   0.0000   0.0000   0.0000   0.0000   0.0000   0.0000   0.0000
     0.0000   0.0000   0.0000   0.0000   0.0000   0.0000   0.0000   0.0000
     0.0000   0.0000   0.0000   0.0000   0.0000   0.0000   0.0000   0.0000
     0.0000   0.0000   0.0000   0.0000

          k = 0.2500-0.1224-0.1626 (  9292 PWs)   bands (ev):

   -31.2054 -15.7849 -15.7630 -11.5781 -11.5235 -11.2989  -8.0299  -7.5863
    -7.5170  -7.2365  -7.2064  -6.7381  -6.5394  -1.2331  -1.0677  -1.0025
    -0.9356  -0.6173  -0.5930   4.2920   4.4603   4.9788   5.0667   5.0809
     5.4195   5.6872   6.0255   6.0284   6.1444   6.2489   6.2860   6.5751
     6.6183   6.9336   7.2140   7.3040   7.3590   7.4301   7.5363   7.5661
     7.8696   7.9204   8.0561   8.2582   8.3232   8.3557   8.4819   8.5316
     8.8261   8.9295   9.1702   9.2655   9.6035   9.7341   9.9907  13.5735
    13.8366  14.7586  15.0854  15.2907  15.5236  15.9540  16.1821  16.4768
    16.7926  16.8231  17.1866  17.5656  17.6692  17.7766  18.4067  18.5928
    18.7162  19.1760  19.3929  20.2762  20.3182  21.2720  21.7389  22.1526
    22.4819  22.8565  23.0481  24.0678  24.3938  24.9571  25.1894  25.4731
    26.0835  26.5067  26.6104  27.1989  27.2145  27.7031  27.8035  28.1990
    28.2698  28.3950  28.9543  29.1107

     occupation numbers 
     1.0000   1.0000   1.0000   1.0000   1.0000   1.0000   1.0000   1.0000
     1.0000   1.0000   1.0000   1.0000   1.0000   1.0000   1.0000   1.0000
     1.0000   1.0000   1.0000   1.0000   1.0000   1.0000   1.0000   1.0000
     1.0000   1.0000   1.0000   1.0000   1.0000   1.0000   1.0000   1.0000
     1.0000   1.0000   1.0000   1.0000   1.0000   1.0000   1.0000   1.0000
     1.0000   1.0000   1.0000   1.0000   1.0000   1.0000   1.0000   1.0000
     1.0000   1.0000   1.0000   1.0000   0.9030   0.4766   0.0032   0.0000
     0.0000   0.0000   0.0000   0.0000   0.0000   0.0000   0.0000   0.0000
     0.0000   0.0000   0.0000   0.0000   0.0000   0.0000   0.0000   0.0000
     0.0000   0.0000   0.0000   0.0000   0.0000   0.0000   0.0000   0.0000
     0.0000   0.0000   0.0000   0.0000   0.0000   0.0000   0.0000   0.0000
     0.0000   0.0000   0.0000   0.0000   0.0000   0.0000   0.0000   0.0000
     0.0000   0.0000   0.0000   0.0000

          k = 0.2500-0.1224-0.0813 (  9294 PWs)   bands (ev):

   -31.2054 -15.7845 -15.7634 -11.5780 -11.5235 -11.2989  -8.0305  -7.5795
    -7.5251  -7.2380  -7.2030  -6.7365  -6.5410  -1.2374  -1.0623  -1.0009
    -0.9382  -0.6155  -0.5946   4.2776   4.4719   4.9856   5.0392   5.1101
     5.4099   5.6990   6.0117   6.0386   6.1363   6.2326   6.2690   6.5428
     6.7481   6.9333   7.2193   7.2991   7.3533   7.4033   7.4549   7.6089
     7.8392   7.9494   8.0277   8.2612   8.2926   8.3895   8.4921   8.5381
     8.8343   8.8779   9.1994   9.3427   9.5566   9.7779   9.9539  13.5540
    13.8291  14.7520  15.1418  15.2712  15.5426  15.9830  16.2569  16.5263
    16.6786  16.7949  17.1491  17.5485  17.6552  17.7963  18.4554  18.5153
    18.7366  18.9454  19.5408  20.0491  20.5300  21.1391  22.0043  22.1429
    22.7609  22.8784  23.2087  24.0184  24.1964  24.9668  25.0770  25.5231
    26.0687  26.3692  26.7291  26.8078  27.1429  27.6792  27.8118  28.0366
    28.2135  28.3673  28.9391  29.0465

     occupation numbers 
     1.0000   1.0000   1.0000   1.0000   1.0000   1.0000   1.0000   1.0000
     1.0000   1.0000   1.0000   1.0000   1.0000   1.0000   1.0000   1.0000
     1.0000   1.0000   1.0000   1.0000   1.0000   1.0000   1.0000   1.0000
     1.0000   1.0000   1.0000   1.0000   1.0000   1.0000   1.0000   1.0000
     1.0000   1.0000   1.0000   1.0000   1.0000   1.0000   1.0000   1.0000
     1.0000   1.0000   1.0000   1.0000   1.0000   1.0000   1.0000   1.0000
     1.0000   1.0000   1.0000   1.0000   0.9630   0.3036   0.0096   0.0000
     0.0000   0.0000   0.0000   0.0000   0.0000   0.0000   0.0000   0.0000
     0.0000   0.0000   0.0000   0.0000   0.0000   0.0000   0.0000   0.0000
     0.0000   0.0000   0.0000   0.0000   0.0000   0.0000   0.0000   0.0000
     0.0000   0.0000   0.0000   0.0000   0.0000   0.0000   0.0000   0.0000
     0.0000   0.0000   0.0000   0.0000   0.0000   0.0000   0.0000   0.0000
     0.0000   0.0000   0.0000   0.0000

          k = 0.3750 0.0000 0.0000 (  9282 PWs)   bands (ev):

   -31.2018 -15.7484 -15.7316 -11.7251 -11.5128 -11.2028  -7.8984  -7.6971
    -7.6836  -7.2002  -7.1649  -6.8460  -6.5109  -1.2987  -1.0209  -0.7989
    -0.7030  -0.6694  -0.6468   3.9971   4.1674   5.0154   5.2960   5.3423
     5.3887   5.9650   6.0240   6.0954   6.1122   6.1660   6.1962   6.2050
     6.7548   6.7805   6.9653   7.1798   7.1909   7.3951   7.5171   7.6316
     7.6963   7.8604   7.9489   8.2296   8.3820   8.4080   8.7165   8.7362
     8.8877   8.9036   8.9212   8.9771   9.0917   9.4038   9.6837  13.8425
    14.4436  14.8665  15.5940  15.8489  16.1009  16.3678  16.4289  16.5895
    16.8029  17.0737  17.1513  17.1772  17.8149  18.1099  18.4722  18.9560
    19.0061  19.0310  19.7545  20.5690  20.8462  21.3120  21.4537  22.1106
    22.8396  23.4018  23.4923  23.7131  24.3528  24.7383  24.9641  25.1391
    25.7755  26.2474  26.5993  26.7665  26.8500  26.9568  27.2362  27.3416
    27.5066  28.5886  28.7044  28.8067

     occupation numbers 
     1.0000   1.0000   1.0000   1.0000   1.0000   1.0000   1.0000   1.0000
     1.0000   1.0000   1.0000   1.0000   1.0000   1.0000   1.0000   1.0000
     1.0000   1.0000   1.0000   1.0000   1.0000   1.0000   1.0000   1.0000
     1.0000   1.0000   1.0000   1.0000   1.0000   1.0000   1.0000   1.0000
     1.0000   1.0000   1.0000   1.0000   1.0000   1.0000   1.0000   1.0000
     1.0000   1.0000   1.0000   1.0000   1.0000   1.0000   1.0000   1.0000
     1.0000   1.0000   1.0000   1.0000   1.0000   0.9996   0.6791   0.0000
     0.0000   0.0000   0.0000   0.0000   0.0000   0.0000   0.0000   0.0000
     0.0000   0.0000   0.0000   0.0000   0.0000   0.0000   0.0000   0.0000
     0.0000   0.0000   0.0000   0.0000   0.0000   0.0000   0.0000   0.0000
     0.0000   0.0000   0.0000   0.0000   0.0000   0.0000   0.0000   0.0000
     0.0000   0.0000   0.0000   0.0000   0.0000   0.0000   0.0000   0.0000
     0.0000   0.0000   0.0000   0.0000

          k = 0.3750 0.0000 0.0813 (  9292 PWs)   bands (ev):

   -31.2018 -15.7487 -15.7312 -11.7251 -11.5128 -11.2028  -7.8976  -7.7449
    -7.6238  -7.2013  -7.1877  -6.8330  -6.5130  -1.2925  -1.0284  -0.8006
    -0.7007  -0.6701  -0.6460   4.0025   4.1627   5.0158   5.2951   5.3477
     5.3889   5.9579   6.0240   6.0992   6.1172   6.1625   6.1956   6.2602
     6.5862   6.8189   6.9464   7.1797   7.2535   7.4200   7.5342   7.6330
     7.6951   7.9092   7.9752   8.1853   8.3547   8.4042   8.7329   8.7398
     8.8592   8.8784   8.9368   8.9606   9.1410   9.3555   9.6959  13.8724
    14.4374  14.8666  15.5710  15.7676  16.0650  16.3582  16.4911  16.5118
    16.8321  17.0970  17.2246  17.2761  17.9374  18.0289  18.3960  19.0087
    19.0290  19.1087  19.6855  20.5833  20.5991  21.0983  21.7311  22.4125
    22.8534  23.1663  23.4166  23.4910  23.8780  24.8256  25.1377  25.5450
    26.0559  26.2135  26.4109  26.5866  26.7827  27.1237  27.5730  27.5848
    27.6675  28.5254  28.5771  28.5967

     occupation numbers 
     1.0000   1.0000   1.0000   1.0000   1.0000   1.0000   1.0000   1.0000
     1.0000   1.0000   1.0000   1.0000   1.0000   1.0000   1.0000   1.0000
     1.0000   1.0000   1.0000   1.0000   1.0000   1.0000   1.0000   1.0000
     1.0000   1.0000   1.0000   1.0000   1.0000   1.0000   1.0000   1.0000
     1.0000   1.0000   1.0000   1.0000   1.0000   1.0000   1.0000   1.0000
     1.0000   1.0000   1.0000   1.0000   1.0000   1.0000   1.0000   1.0000
     1.0000   1.0000   1.0000   1.0000   1.0000   0.9999   0.6326   0.0000
     0.0000   0.0000   0.0000   0.0000   0.0000   0.0000   0.0000   0.0000
     0.0000   0.0000   0.0000   0.0000   0.0000   0.0000   0.0000   0.0000
     0.0000   0.0000   0.0000   0.0000   0.0000   0.0000   0.0000   0.0000
     0.0000   0.0000   0.0000   0.0000   0.0000   0.0000   0.0000   0.0000
     0.0000   0.0000   0.0000   0.0000   0.0000   0.0000   0.0000   0.0000
     0.0000   0.0000   0.0000   0.0000

          k = 0.3750 0.0000-0.1626 (  9276 PWs)   bands (ev):

   -31.2018 -15.7491 -15.7308 -11.7251 -11.5128 -11.2028  -7.8967  -7.7651
    -7.5900  -7.2141  -7.1993  -6.8209  -6.5151  -1.2860  -1.0362  -0.8021
    -0.6985  -0.6708  -0.6453   4.0083   4.1576   5.0163   5.2942   5.3527
     5.3890   5.9347   6.0240   6.1235   6.1577   6.1952   6.2000   6.2640
     6.4237   6.8674   6.9197   7.1796   7.2480   7.4649   7.5682   7.6344
     7.6938   7.9561   8.0428   8.0971   8.3259   8.4005   8.7452   8.7554
     8.8315   8.8514   8.9455   8.9491   9.2434   9.2491   9.7073  13.9053
    14.4281  14.8668  15.5360  15.7055  16.0450  16.3218  16.4551  16.5914
    16.8781  17.0588  17.2753  17.3826  17.9198  18.1253  18.3129  19.0117
    19.0266  19.4060  19.4347  20.4748  20.6249  20.8752  22.1558  22.4159
    22.6255  22.8665  23.4508  23.4711  24.1163  24.5326  25.1362  25.4444
    26.1889  26.2247  26.3390  26.7070  27.0111  27.5297  27.6025  27.8311
    28.0879  28.1927  28.3285  28.5042

     occupation numbers 
     1.0000   1.0000   1.0000   1.0000   1.0000   1.0000   1.0000   1.0000
     1.0000   1.0000   1.0000   1.0000   1.0000   1.0000   1.0000   1.0000
     1.0000   1.0000   1.0000   1.0000   1.0000   1.0000   1.0000   1.0000
     1.0000   1.0000   1.0000   1.0000   1.0000   1.0000   1.0000   1.0000
     1.0000   1.0000   1.0000   1.0000   1.0000   1.0000   1.0000   1.0000
     1.0000   1.0000   1.0000   1.0000   1.0000   1.0000   1.0000   1.0000
     1.0000   1.0000   1.0000   1.0000   1.0000   1.0000   0.5869   0.0000
     0.0000   0.0000   0.0000   0.0000   0.0000   0.0000   0.0000   0.0000
     0.0000   0.0000   0.0000   0.0000   0.0000   0.0000   0.0000   0.0000
     0.0000   0.0000   0.0000   0.0000   0.0000   0.0000   0.0000   0.0000
     0.0000   0.0000   0.0000   0.0000   0.0000   0.0000   0.0000   0.0000
     0.0000   0.0000   0.0000   0.0000   0.0000   0.0000   0.0000   0.0000
     0.0000   0.0000   0.0000   0.0000

          k = 0.3750 0.0000-0.0813 (  9292 PWs)   bands (ev):

   -31.2018 -15.7487 -15.7312 -11.7251 -11.5128 -11.2028  -7.8976  -7.7449
    -7.6238  -7.2013  -7.1877  -6.8330  -6.5130  -1.2925  -1.0284  -0.8006
    -0.7007  -0.6701  -0.6460   4.0025   4.1627   5.0158   5.2951   5.3477
     5.3889   5.9579   6.0240   6.0992   6.1172   6.1625   6.1956   6.2602
     6.5862   6.8189   6.9464   7.1797   7.2535   7.4200   7.5342   7.6330
     7.6951   7.9092   7.9752   8.1853   8.3547   8.4042   8.7329   8.7398
     8.8592   8.8784   8.9368   8.9606   9.1410   9.3555   9.6959  13.8724
    14.4374  14.8666  15.5710  15.7676  16.0650  16.3582  16.4911  16.5118
    16.8321  17.0970  17.2246  17.2761  17.9374  18.0289  18.3960  19.0087
    19.0290  19.1087  19.6855  20.5833  20.5991  21.0983  21.7311  22.4125
    22.8534  23.1663  23.4166  23.4910  23.8780  24.8256  25.1377  25.5450
    26.0559  26.2135  26.4109  26.5866  26.7827  27.1237  27.5730  27.5848
    27.6675  28.5254  28.5771  28.5967

     occupation numbers 
     1.0000   1.0000   1.0000   1.0000   1.0000   1.0000   1.0000   1.0000
     1.0000   1.0000   1.0000   1.0000   1.0000   1.0000   1.0000   1.0000
     1.0000   1.0000   1.0000   1.0000   1.0000   1.0000   1.0000   1.0000
     1.0000   1.0000   1.0000   1.0000   1.0000   1.0000   1.0000   1.0000
     1.0000   1.0000   1.0000   1.0000   1.0000   1.0000   1.0000   1.0000
     1.0000   1.0000   1.0000   1.0000   1.0000   1.0000   1.0000   1.0000
     1.0000   1.0000   1.0000   1.0000   1.0000   0.9999   0.6326   0.0000
     0.0000   0.0000   0.0000   0.0000   0.0000   0.0000   0.0000   0.0000
     0.0000   0.0000   0.0000   0.0000   0.0000   0.0000   0.0000   0.0000
     0.0000   0.0000   0.0000   0.0000   0.0000   0.0000   0.0000   0.0000
     0.0000   0.0000   0.0000   0.0000   0.0000   0.0000   0.0000   0.0000
     0.0000   0.0000   0.0000   0.0000   0.0000   0.0000   0.0000   0.0000
     0.0000   0.0000   0.0000   0.0000

          k = 0.3750 0.1224 0.0000 (  9289 PWs)   bands (ev):

   -31.2002 -15.7359 -15.7193 -11.7194 -11.4849 -11.2897  -7.7915  -7.6674
    -7.6210  -7.2584  -7.1399  -6.8251  -6.5300  -1.2953  -1.0265  -0.9797
    -0.9095  -0.6954  -0.6801   3.8785   4.1333   4.9883   5.1673   5.1861
     5.4259   5.6732   5.7067   5.7149   5.9235   6.1247   6.3188   6.4061
     6.7272   6.8426   7.1109   7.1763   7.3307   7.4538   7.5425   7.6114
     7.7007   7.8752   8.1659   8.3029   8.4240   8.4625   8.6898   8.7781
     8.7979   8.8490   9.0459   9.3407   9.5768   9.8955   9.9555  13.7192
    14.4526  14.6329  15.5765  15.8987  16.0654  16.3123  16.4986  16.7592
    16.7787  17.0897  17.1863  17.4693  17.6366  18.0279  18.4151  18.6176
    19.0479  19.4257  19.8971  20.6406  20.8054  21.1226  21.9095  22.2743
    22.8481  23.3366  23.4601  23.7155  24.5160  24.8232  24.8351  24.8772
    25.5857  26.0150  26.3024  26.4097  26.6735  27.3018  27.6758  27.8822
    27.9192  28.2503  28.8761  28.8912

     occupation numbers 
     1.0000   1.0000   1.0000   1.0000   1.0000   1.0000   1.0000   1.0000
     1.0000   1.0000   1.0000   1.0000   1.0000   1.0000   1.0000   1.0000
     1.0000   1.0000   1.0000   1.0000   1.0000   1.0000   1.0000   1.0000
     1.0000   1.0000   1.0000   1.0000   1.0000   1.0000   1.0000   1.0000
     1.0000   1.0000   1.0000   1.0000   1.0000   1.0000   1.0000   1.0000
     1.0000   1.0000   1.0000   1.0000   1.0000   1.0000   1.0000   1.0000
     1.0000   1.0000   1.0000   1.0000   0.9426   0.0413   0.0091   0.0000
     0.0000   0.0000   0.0000   0.0000   0.0000   0.0000   0.0000   0.0000
     0.0000   0.0000   0.0000   0.0000   0.0000   0.0000   0.0000   0.0000
     0.0000   0.0000   0.0000   0.0000   0.0000   0.0000   0.0000   0.0000
     0.0000   0.0000   0.0000   0.0000   0.0000   0.0000   0.0000   0.0000
     0.0000   0.0000   0.0000   0.0000   0.0000   0.0000   0.0000   0.0000
     0.0000   0.0000   0.0000   0.0000

          k = 0.3750 0.1224 0.0813 (  9281 PWs)   bands (ev):

   -31.2002 -15.7363 -15.7189 -11.7194 -11.4849 -11.2897  -7.7901  -7.7007
    -7.5778  -7.2582  -7.1607  -6.8142  -6.5317  -1.2914  -1.0297  -0.9835
    -0.9070  -0.6970  -0.6785   3.8847   4.1271   4.9944   5.1376   5.1978
     5.4366   5.6690   5.7049   5.7324   5.9168   6.1657   6.3186   6.4004
     6.6021   6.8606   7.1022   7.2009   7.3885   7.4633   7.5531   7.5933
     7.7219   7.9296   8.1584   8.2676   8.4176   8.4341   8.7120   8.7752
     8.7942   8.8794   9.0328   9.2641   9.6011   9.8080  10.0482  13.7382
    14.4314  14.6483  15.6431  15.8904  16.0664  16.2520  16.4575  16.6867
    16.8405  16.9819  17.2039  17.5146  17.6437  18.1573  18.4260  18.6630
    19.0257  19.4935  19.9077  20.6179  20.7325  21.1279  22.0207  22.1767
    22.7296  23.2807  23.3959  23.6718  23.8437  24.6784  25.0179  25.5553
    25.8791  26.0962  26.3240  26.6172  26.6822  27.2919  27.5479  27.8528
    28.0216  28.2539  28.6483  28.7541

     occupation numbers 
     1.0000   1.0000   1.0000   1.0000   1.0000   1.0000   1.0000   1.0000
     1.0000   1.0000   1.0000   1.0000   1.0000   1.0000   1.0000   1.0000
     1.0000   1.0000   1.0000   1.0000   1.0000   1.0000   1.0000   1.0000
     1.0000   1.0000   1.0000   1.0000   1.0000   1.0000   1.0000   1.0000
     1.0000   1.0000   1.0000   1.0000   1.0000   1.0000   1.0000   1.0000
     1.0000   1.0000   1.0000   1.0000   1.0000   1.0000   1.0000   1.0000
     1.0000   1.0000   1.0000   1.0000   0.9073   0.2041   0.0004   0.0000
     0.0000   0.0000   0.0000   0.0000   0.0000   0.0000   0.0000   0.0000
     0.0000   0.0000   0.0000   0.0000   0.0000   0.0000   0.0000   0.0000
     0.0000   0.0000   0.0000   0.0000   0.0000   0.0000   0.0000   0.0000
     0.0000   0.0000   0.0000   0.0000   0.0000   0.0000   0.0000   0.0000
     0.0000   0.0000   0.0000   0.0000   0.0000   0.0000   0.0000   0.0000
     0.0000   0.0000   0.0000   0.0000

          k = 0.3750 0.1224-0.1626 (  9284 PWs)   bands (ev):

   -31.2002 -15.7367 -15.7185 -11.7194 -11.4849 -11.2897  -7.7884  -7.7195
    -7.5480  -7.2577  -7.1822  -6.8040  -6.5335  -1.2873  -1.0334  -0.9868
    -0.9048  -0.6984  -0.6770   3.8912   4.1206   5.0020   5.1151   5.2012
     5.4476   5.6601   5.7189   5.7395   5.9056   6.2599   6.3275   6.3417
     6.4937   6.8667   7.1042   7.2109   7.4260   7.4947   7.5464   7.5820
     7.7498   8.0085   8.1300   8.2269   8.3769   8.4394   8.7310   8.7723
     8.7906   8.9466   9.0015   9.1719   9.6283   9.7601  10.0962  13.7584
    14.4077  14.6652  15.7317  15.9284  15.9810  16.2204  16.3943  16.6446
    16.8603  16.9213  17.2916  17.4864  17.6226  18.2321  18.5377  18.6860
    18.9928  19.5838  19.8921  20.5503  20.7416  21.1298  22.0816  22.1884
    22.4410  22.9981  23.3377  23.8016  23.8513  24.6401  25.0835  25.5786
    25.9078  25.9888  26.6701  26.6984  27.1894  27.2906  27.5102  27.9274
    28.0127  28.2078  28.5060  28.5403

     occupation numbers 
     1.0000   1.0000   1.0000   1.0000   1.0000   1.0000   1.0000   1.0000
     1.0000   1.0000   1.0000   1.0000   1.0000   1.0000   1.0000   1.0000
     1.0000   1.0000   1.0000   1.0000   1.0000   1.0000   1.0000   1.0000
     1.0000   1.0000   1.0000   1.0000   1.0000   1.0000   1.0000   1.0000
     1.0000   1.0000   1.0000   1.0000   1.0000   1.0000   1.0000   1.0000
     1.0000   1.0000   1.0000   1.0000   1.0000   1.0000   1.0000   1.0000
     1.0000   1.0000   1.0000   1.0000   0.8511   0.3712   0.0001   0.0000
     0.0000   0.0000   0.0000   0.0000   0.0000   0.0000   0.0000   0.0000
     0.0000   0.0000   0.0000   0.0000   0.0000   0.0000   0.0000   0.0000
     0.0000   0.0000   0.0000   0.0000   0.0000   0.0000   0.0000   0.0000
     0.0000   0.0000   0.0000   0.0000   0.0000   0.0000   0.0000   0.0000
     0.0000   0.0000   0.0000   0.0000   0.0000   0.0000   0.0000   0.0000
     0.0000   0.0000   0.0000   0.0000

          k = 0.3750 0.1224-0.0813 (  9281 PWs)   bands (ev):

   -31.2002 -15.7363 -15.7189 -11.7194 -11.4849 -11.2897  -7.7901  -7.7007
    -7.5778  -7.2582  -7.1607  -6.8142  -6.5317  -1.2914  -1.0297  -0.9835
    -0.9070  -0.6970  -0.6785   3.8847   4.1271   4.9944   5.1376   5.1978
     5.4366   5.6690   5.7049   5.7324   5.9168   6.1657   6.3186   6.4004
     6.6021   6.8606   7.1022   7.2009   7.3885   7.4633   7.5531   7.5933
     7.7219   7.9296   8.1584   8.2676   8.4176   8.4341   8.7120   8.7752
     8.7942   8.8794   9.0328   9.2641   9.6011   9.8080  10.0482  13.7382
    14.4314  14.6483  15.6431  15.8904  16.0664  16.2520  16.4575  16.6867
    16.8405  16.9819  17.2039  17.5146  17.6437  18.1573  18.4260  18.6630
    19.0257  19.4935  19.9077  20.6179  20.7325  21.1279  22.0207  22.1767
    22.7296  23.2807  23.3959  23.6718  23.8437  24.6784  25.0179  25.5553
    25.8791  26.0962  26.3240  26.6172  26.6822  27.2919  27.5479  27.8528
    28.0216  28.2539  28.6483  28.7541

     occupation numbers 
     1.0000   1.0000   1.0000   1.0000   1.0000   1.0000   1.0000   1.0000
     1.0000   1.0000   1.0000   1.0000   1.0000   1.0000   1.0000   1.0000
     1.0000   1.0000   1.0000   1.0000   1.0000   1.0000   1.0000   1.0000
     1.0000   1.0000   1.0000   1.0000   1.0000   1.0000   1.0000   1.0000
     1.0000   1.0000   1.0000   1.0000   1.0000   1.0000   1.0000   1.0000
     1.0000   1.0000   1.0000   1.0000   1.0000   1.0000   1.0000   1.0000
     1.0000   1.0000   1.0000   1.0000   0.9073   0.2041   0.0004   0.0000
     0.0000   0.0000   0.0000   0.0000   0.0000   0.0000   0.0000   0.0000
     0.0000   0.0000   0.0000   0.0000   0.0000   0.0000   0.0000   0.0000
     0.0000   0.0000   0.0000   0.0000   0.0000   0.0000   0.0000   0.0000
     0.0000   0.0000   0.0000   0.0000   0.0000   0.0000   0.0000   0.0000
     0.0000   0.0000   0.0000   0.0000   0.0000   0.0000   0.0000   0.0000
     0.0000   0.0000   0.0000   0.0000

          k = 0.3750 0.2448 0.0000 (  9294 PWs)   bands (ev):

   -31.1962 -15.7057 -15.6892 -11.7055 -11.4810 -11.4147  -7.5980  -7.5512
    -7.4424  -7.3972  -7.0840  -6.7737  -6.5987  -1.3277  -1.3033  -1.1617
    -1.0116  -0.9268  -0.8799   3.5258   3.9838   4.8002   4.9112   4.9256
     5.0463   5.1051   5.3758   5.6747   5.8136   6.2584   6.3175   6.5215
     6.5748   6.6384   6.8377   7.3402   7.5850   7.6235   7.8643   7.9346
     7.9997   8.1232   8.3969   8.5259   8.6198   8.6777   8.7328   8.7826
     8.8427   8.9423   9.2971   9.3856  10.4750  10.6305  10.6701  13.2737
    14.0183  14.8323  15.6380  16.0652  16.0761  16.3044  16.6930  16.7357
    16.7525  17.1359  17.4094  17.4893  17.5665  17.8651  18.1760  19.1469
    19.2530  19.9337  20.2583  20.6179  20.7080  20.9159  21.8996  22.3931
    22.9242  23.3527  23.6787  24.1183  24.2295  24.9543  24.9787  25.0593
    25.1247  25.4431  25.8778  26.0656  26.3005  27.1910  27.6331  27.7063
    28.1723  28.3529  28.5468  28.7646

     occupation numbers 
     1.0000   1.0000   1.0000   1.0000   1.0000   1.0000   1.0000   1.0000
     1.0000   1.0000   1.0000   1.0000   1.0000   1.0000   1.0000   1.0000
     1.0000   1.0000   1.0000   1.0000   1.0000   1.0000   1.0000   1.0000
     1.0000   1.0000   1.0000   1.0000   1.0000   1.0000   1.0000   1.0000
     1.0000   1.0000   1.0000   1.0000   1.0000   1.0000   1.0000   1.0000
     1.0000   1.0000   1.0000   1.0000   1.0000   1.0000   1.0000   1.0000
     1.0000   1.0000   1.0000   0.9998   0.0000   0.0000   0.0000   0.0000
     0.0000   0.0000   0.0000   0.0000   0.0000   0.0000   0.0000   0.0000
     0.0000   0.0000   0.0000   0.0000   0.0000   0.0000   0.0000   0.0000
     0.0000   0.0000   0.0000   0.0000   0.0000   0.0000   0.0000   0.0000
     0.0000   0.0000   0.0000   0.0000   0.0000   0.0000   0.0000   0.0000
     0.0000   0.0000   0.0000   0.0000   0.0000   0.0000   0.0000   0.0000
     0.0000   0.0000   0.0000   0.0000

          k = 0.3750 0.2448 0.0813 (  9303 PWs)   bands (ev):

   -31.1962 -15.7060 -15.6889 -11.7055 -11.4810 -11.4147  -7.6097  -7.5445
    -7.4325  -7.3949  -7.0958  -6.7683  -6.5997  -1.3261  -1.3046  -1.1581
    -1.0166  -0.9292  -0.8769   3.5339   3.9726   4.8048   4.8912   4.9292
     5.0599   5.1142   5.3598   5.6819   5.8215   6.2625   6.3298   6.4843
     6.5637   6.6207   6.8271   7.4436   7.6007   7.6271   7.8368   7.9473
     8.0015   8.1595   8.3592   8.5101   8.6097   8.6517   8.7228   8.7974
     8.8841   8.9415   9.2320   9.3434  10.4880  10.6127  10.7307  13.3052
    14.0197  14.8119  15.6641  16.0312  16.0843  16.2191  16.4822  16.7831
    16.9627  17.0929  17.3924  17.5123  17.5903  17.9238  18.2734  19.0599
    19.2311  19.9703  20.3267  20.5520  20.7671  21.0386  21.8999  22.4292
    22.4431  23.2095  23.7685  24.0014  24.1616  24.6228  25.0043  25.1273
    25.2525  25.8320  26.0438  26.2637  26.5325  27.2781  27.4764  27.7794
    28.0533  28.3586  28.5836  28.8686

     occupation numbers 
     1.0000   1.0000   1.0000   1.0000   1.0000   1.0000   1.0000   1.0000
     1.0000   1.0000   1.0000   1.0000   1.0000   1.0000   1.0000   1.0000
     1.0000   1.0000   1.0000   1.0000   1.0000   1.0000   1.0000   1.0000
     1.0000   1.0000   1.0000   1.0000   1.0000   1.0000   1.0000   1.0000
     1.0000   1.0000   1.0000   1.0000   1.0000   1.0000   1.0000   1.0000
     1.0000   1.0000   1.0000   1.0000   1.0000   1.0000   1.0000   1.0000
     1.0000   1.0000   1.0000   1.0000   0.0000   0.0000   0.0000   0.0000
     0.0000   0.0000   0.0000   0.0000   0.0000   0.0000   0.0000   0.0000
     0.0000   0.0000   0.0000   0.0000   0.0000   0.0000   0.0000   0.0000
     0.0000   0.0000   0.0000   0.0000   0.0000   0.0000   0.0000   0.0000
     0.0000   0.0000   0.0000   0.0000   0.0000   0.0000   0.0000   0.0000
     0.0000   0.0000   0.0000   0.0000   0.0000   0.0000   0.0000   0.0000
     0.0000   0.0000   0.0000   0.0000

          k = 0.3750 0.2448-0.1626 (  9284 PWs)   bands (ev):

   -31.1962 -15.7063 -15.6886 -11.7055 -11.4810 -11.4147  -7.6185  -7.5403
    -7.4239  -7.3907  -7.1079  -6.7630  -6.6008  -1.3245  -1.3058  -1.1543
    -1.0216  -0.9315  -0.8741   3.5423   3.9609   4.8109   4.8738   4.9309
     5.0722   5.1231   5.3443   5.6855   5.8333   6.2665   6.3620   6.4188
     6.5570   6.6068   6.8245   7.5762   7.5817   7.6625   7.7666   7.9674
     8.0043   8.2421   8.2847   8.4989   8.5488   8.6860   8.6994   8.8080
     8.9215   8.9689   9.1112   9.3312  10.4991  10.6039  10.7793  13.3390
    14.0189  14.7866  15.7930  15.8839  16.0870  16.1648  16.3599  16.8200
    17.0567  17.0960  17.3855  17.5816  17.5920  17.9000  18.4232  18.9540
    19.2094  20.0059  20.3738  20.5312  20.7776  21.4386  21.7420  21.9052
    22.4790  23.1431  23.5960  23.8741  24.2409  24.7688  25.0495  25.1619
    25.2327  25.7783  26.1716  26.2706  27.0219  27.4490  27.4715  27.8944
    27.9712  28.2497  28.6707  29.0337

     occupation numbers 
     1.0000   1.0000   1.0000   1.0000   1.0000   1.0000   1.0000   1.0000
     1.0000   1.0000   1.0000   1.0000   1.0000   1.0000   1.0000   1.0000
     1.0000   1.0000   1.0000   1.0000   1.0000   1.0000   1.0000   1.0000
     1.0000   1.0000   1.0000   1.0000   1.0000   1.0000   1.0000   1.0000
     1.0000   1.0000   1.0000   1.0000   1.0000   1.0000   1.0000   1.0000
     1.0000   1.0000   1.0000   1.0000   1.0000   1.0000   1.0000   1.0000
     1.0000   1.0000   1.0000   1.0000   0.0000   0.0000   0.0000   0.0000
     0.0000   0.0000   0.0000   0.0000   0.0000   0.0000   0.0000   0.0000
     0.0000   0.0000   0.0000   0.0000   0.0000   0.0000   0.0000   0.0000
     0.0000   0.0000   0.0000   0.0000   0.0000   0.0000   0.0000   0.0000
     0.0000   0.0000   0.0000   0.0000   0.0000   0.0000   0.0000   0.0000
     0.0000   0.0000   0.0000   0.0000   0.0000   0.0000   0.0000   0.0000
     0.0000   0.0000   0.0000   0.0000

          k = 0.3750 0.2448-0.0813 (  9303 PWs)   bands (ev):

   -31.1962 -15.7060 -15.6889 -11.7055 -11.4810 -11.4147  -7.6097  -7.5445
    -7.4325  -7.3949  -7.0958  -6.7683  -6.5997  -1.3261  -1.3046  -1.1581
    -1.0166  -0.9292  -0.8769   3.5339   3.9726   4.8048   4.8912   4.9292
     5.0599   5.1142   5.3598   5.6819   5.8215   6.2625   6.3298   6.4843
     6.5637   6.6207   6.8271   7.4436   7.6007   7.6271   7.8368   7.9473
     8.0015   8.1595   8.3592   8.5101   8.6097   8.6517   8.7228   8.7974
     8.8841   8.9415   9.2320   9.3434  10.4880  10.6127  10.7307  13.3052
    14.0197  14.8119  15.6641  16.0312  16.0843  16.2191  16.4822  16.7831
    16.9627  17.0929  17.3924  17.5123  17.5903  17.9238  18.2734  19.0599
    19.2311  19.9703  20.3267  20.5520  20.7671  21.0386  21.8999  22.4292
    22.4431  23.2095  23.7685  24.0014  24.1616  24.6228  25.0043  25.1273
    25.2525  25.8320  26.0438  26.2637  26.5325  27.2781  27.4764  27.7794
    28.0533  28.3586  28.5836  28.8686

     occupation numbers 
     1.0000   1.0000   1.0000   1.0000   1.0000   1.0000   1.0000   1.0000
     1.0000   1.0000   1.0000   1.0000   1.0000   1.0000   1.0000   1.0000
     1.0000   1.0000   1.0000   1.0000   1.0000   1.0000   1.0000   1.0000
     1.0000   1.0000   1.0000   1.0000   1.0000   1.0000   1.0000   1.0000
     1.0000   1.0000   1.0000   1.0000   1.0000   1.0000   1.0000   1.0000
     1.0000   1.0000   1.0000   1.0000   1.0000   1.0000   1.0000   1.0000
     1.0000   1.0000   1.0000   1.0000   0.0000   0.0000   0.0000   0.0000
     0.0000   0.0000   0.0000   0.0000   0.0000   0.0000   0.0000   0.0000
     0.0000   0.0000   0.0000   0.0000   0.0000   0.0000   0.0000   0.0000
     0.0000   0.0000   0.0000   0.0000   0.0000   0.0000   0.0000   0.0000
     0.0000   0.0000   0.0000   0.0000   0.0000   0.0000   0.0000   0.0000
     0.0000   0.0000   0.0000   0.0000   0.0000   0.0000   0.0000   0.0000
     0.0000   0.0000   0.0000   0.0000

          k = 0.3750 0.3672 0.0000 (  9307 PWs)   bands (ev):

   -31.1922 -15.6750 -15.6588 -11.6920 -11.6517 -11.3400  -7.5883  -7.4772
    -7.3067  -7.1985  -7.0481  -6.7356  -6.7218  -1.5041  -1.4635  -1.2623
    -1.2459  -1.1050  -0.9810   3.1391   3.7196   4.3230   4.6737   4.6998
     4.7292   5.0331   5.2403   5.7925   5.8783   6.1052   6.3901   6.3962
     6.5021   6.5350   6.6662   7.3867   7.6859   7.9623   8.1530   8.3070
     8.3573   8.4542   8.5446   8.6391   8.6973   8.7114   8.8936   8.9979
     9.0326   9.1424   9.2691   9.5619  11.0437  11.1234  11.2228  12.8128
    13.7456  14.9824  15.5485  15.9834  16.1126  16.2954  16.4185  16.7151
    16.8388  17.3325  17.6200  17.9785  18.0659  18.1549  18.5437  19.0367
    19.7684  20.1027  20.3389  20.7919  20.9011  21.4382  21.5491  22.0181
    22.8326  23.1128  23.6339  23.6577  24.4253  24.6359  24.7026  25.0519
    25.1746  25.3107  25.3392  25.6152  25.7818  26.1524  26.8756  27.4377
    28.1733  28.5758  28.8572  29.1195

     occupation numbers 
     1.0000   1.0000   1.0000   1.0000   1.0000   1.0000   1.0000   1.0000
     1.0000   1.0000   1.0000   1.0000   1.0000   1.0000   1.0000   1.0000
     1.0000   1.0000   1.0000   1.0000   1.0000   1.0000   1.0000   1.0000
     1.0000   1.0000   1.0000   1.0000   1.0000   1.0000   1.0000   1.0000
     1.0000   1.0000   1.0000   1.0000   1.0000   1.0000   1.0000   1.0000
     1.0000   1.0000   1.0000   1.0000   1.0000   1.0000   1.0000   1.0000
     1.0000   1.0000   1.0000   0.9583   0.0000   0.0000   0.0000   0.0000
     0.0000   0.0000   0.0000   0.0000   0.0000   0.0000   0.0000   0.0000
     0.0000   0.0000   0.0000   0.0000   0.0000   0.0000   0.0000   0.0000
     0.0000   0.0000   0.0000   0.0000   0.0000   0.0000   0.0000   0.0000
     0.0000   0.0000   0.0000   0.0000   0.0000   0.0000   0.0000   0.0000
     0.0000   0.0000   0.0000   0.0000   0.0000   0.0000   0.0000   0.0000
     0.0000   0.0000   0.0000   0.0000

          k = 0.3750 0.3672 0.0813 (  9312 PWs)   bands (ev):

   -31.1922 -15.6753 -15.6585 -11.6920 -11.6517 -11.3401  -7.5895  -7.4785
    -7.2991  -7.2008  -7.0516  -6.7369  -6.7196  -1.5049  -1.4619  -1.2652
    -1.2430  -1.0999  -0.9875   3.1492   3.7024   4.3249   4.6751   4.7138
     4.7279   5.0376   5.2182   5.7810   5.9011   6.1235   6.3241   6.4149
     6.4937   6.5524   6.6446   7.5030   7.7008   7.9733   8.1611   8.2485
     8.3685   8.4560   8.5208   8.6349   8.6842   8.7166   8.8937   9.0003
     9.0052   9.1142   9.2264   9.5587  11.1157  11.1407  11.2239  12.8373
    13.7137  14.9959  15.5852  15.9237  15.9824  16.3110  16.3559  16.6840
    16.9735  17.3074  17.6578  17.8515  18.1866  18.3306  18.5792  18.9902
    19.7825  20.1578  20.3181  20.7870  20.9490  21.3350  21.5105  22.0658
    22.4942  23.3254  23.4422  23.7145  24.2293  24.6679  24.7616  24.8966
    25.0799  25.2795  25.3670  25.6865  25.7908  26.5769  27.2057  27.5767
    28.2375  28.5900  28.6838  29.0221

     occupation numbers 
     1.0000   1.0000   1.0000   1.0000   1.0000   1.0000   1.0000   1.0000
     1.0000   1.0000   1.0000   1.0000   1.0000   1.0000   1.0000   1.0000
     1.0000   1.0000   1.0000   1.0000   1.0000   1.0000   1.0000   1.0000
     1.0000   1.0000   1.0000   1.0000   1.0000   1.0000   1.0000   1.0000
     1.0000   1.0000   1.0000   1.0000   1.0000   1.0000   1.0000   1.0000
     1.0000   1.0000   1.0000   1.0000   1.0000   1.0000   1.0000   1.0000
     1.0000   1.0000   1.0000   0.9612   0.0000   0.0000   0.0000   0.0000
     0.0000   0.0000   0.0000   0.0000   0.0000   0.0000   0.0000   0.0000
     0.0000   0.0000   0.0000   0.0000   0.0000   0.0000   0.0000   0.0000
     0.0000   0.0000   0.0000   0.0000   0.0000   0.0000   0.0000   0.0000
     0.0000   0.0000   0.0000   0.0000   0.0000   0.0000   0.0000   0.0000
     0.0000   0.0000   0.0000   0.0000   0.0000   0.0000   0.0000   0.0000
     0.0000   0.0000   0.0000   0.0000

          k = 0.3750 0.3672-0.1626 (  9304 PWs)   bands (ev):

   -31.1922 -15.6755 -15.6582 -11.6920 -11.6517 -11.3401  -7.5907  -7.4798
    -7.2911  -7.2035  -7.0552  -6.7379  -6.7177  -1.5057  -1.4604  -1.2677
    -1.2404  -1.0942  -0.9946   3.1598   3.6847   4.3267   4.6761   4.7266
     4.7293   5.0420   5.1960   5.7701   5.9244   6.1482   6.2731   6.4185
     6.4714   6.5834   6.6212   7.6061   7.7687   7.9878   8.0746   8.2452
     8.3811   8.4579   8.5090   8.6352   8.6682   8.6796   8.8870   8.9813
     9.0086   9.0842   9.2060   9.5561  11.1240  11.2010  11.2410  12.8632
    13.6796  15.0058  15.6507  15.8130  15.9045  16.2966  16.3587  16.7318
    16.8317  17.5322  17.5533  17.9108  18.1441  18.5062  18.6336  18.9362
    19.7996  20.2574  20.2576  20.7689  21.0420  21.1658  21.6494  21.9488
    22.1716  23.3501  23.5552  23.7619  24.0941  24.5548  24.7799  24.8507
    24.9876  25.2967  25.3735  25.6454  25.8829  26.8164  27.5799  27.8609
    28.3628  28.4563  28.5682  29.1551

     occupation numbers 
     1.0000   1.0000   1.0000   1.0000   1.0000   1.0000   1.0000   1.0000
     1.0000   1.0000   1.0000   1.0000   1.0000   1.0000   1.0000   1.0000
     1.0000   1.0000   1.0000   1.0000   1.0000   1.0000   1.0000   1.0000
     1.0000   1.0000   1.0000   1.0000   1.0000   1.0000   1.0000   1.0000
     1.0000   1.0000   1.0000   1.0000   1.0000   1.0000   1.0000   1.0000
     1.0000   1.0000   1.0000   1.0000   1.0000   1.0000   1.0000   1.0000
     1.0000   1.0000   1.0000   0.9634   0.0000   0.0000   0.0000   0.0000
     0.0000   0.0000   0.0000   0.0000   0.0000   0.0000   0.0000   0.0000
     0.0000   0.0000   0.0000   0.0000   0.0000   0.0000   0.0000   0.0000
     0.0000   0.0000   0.0000   0.0000   0.0000   0.0000   0.0000   0.0000
     0.0000   0.0000   0.0000   0.0000   0.0000   0.0000   0.0000   0.0000
     0.0000   0.0000   0.0000   0.0000   0.0000   0.0000   0.0000   0.0000
     0.0000   0.0000   0.0000   0.0000

          k = 0.3750 0.3672-0.0813 (  9312 PWs)   bands (ev):

   -31.1922 -15.6753 -15.6585 -11.6920 -11.6517 -11.3401  -7.5895  -7.4785
    -7.2991  -7.2008  -7.0516  -6.7369  -6.7196  -1.5049  -1.4619  -1.2652
    -1.2430  -1.0999  -0.9875   3.1492   3.7024   4.3249   4.6751   4.7138
     4.7279   5.0376   5.2182   5.7810   5.9011   6.1235   6.3241   6.4149
     6.4937   6.5524   6.6446   7.5030   7.7008   7.9733   8.1611   8.2485
     8.3685   8.4560   8.5208   8.6349   8.6842   8.7166   8.8937   9.0003
     9.0052   9.1142   9.2264   9.5587  11.1157  11.1407  11.2239  12.8373
    13.7137  14.9959  15.5852  15.9237  15.9824  16.3110  16.3559  16.6840
    16.9735  17.3074  17.6578  17.8515  18.1866  18.3306  18.5792  18.9902
    19.7825  20.1578  20.3181  20.7870  20.9490  21.3350  21.5105  22.0658
    22.4942  23.3254  23.4422  23.7145  24.2293  24.6679  24.7616  24.8966
    25.0799  25.2795  25.3670  25.6865  25.7908  26.5769  27.2057  27.5767
    28.2375  28.5900  28.6838  29.0221

     occupation numbers 
     1.0000   1.0000   1.0000   1.0000   1.0000   1.0000   1.0000   1.0000
     1.0000   1.0000   1.0000   1.0000   1.0000   1.0000   1.0000   1.0000
     1.0000   1.0000   1.0000   1.0000   1.0000   1.0000   1.0000   1.0000
     1.0000   1.0000   1.0000   1.0000   1.0000   1.0000   1.0000   1.0000
     1.0000   1.0000   1.0000   1.0000   1.0000   1.0000   1.0000   1.0000
     1.0000   1.0000   1.0000   1.0000   1.0000   1.0000   1.0000   1.0000
     1.0000   1.0000   1.0000   0.9612   0.0000   0.0000   0.0000   0.0000
     0.0000   0.0000   0.0000   0.0000   0.0000   0.0000   0.0000   0.0000
     0.0000   0.0000   0.0000   0.0000   0.0000   0.0000   0.0000   0.0000
     0.0000   0.0000   0.0000   0.0000   0.0000   0.0000   0.0000   0.0000
     0.0000   0.0000   0.0000   0.0000   0.0000   0.0000   0.0000   0.0000
     0.0000   0.0000   0.0000   0.0000   0.0000   0.0000   0.0000   0.0000
     0.0000   0.0000   0.0000   0.0000

          k = 0.3750-0.4896 0.0000 (  9326 PWs)   bands (ev):

   -31.1905 -15.6621 -15.6461 -11.7191 -11.6852 -11.3077  -7.6369  -7.4579
    -7.1652  -7.0735  -6.9973  -6.8967  -6.7003  -1.5135  -1.4953  -1.4779
    -1.3109  -1.1642  -0.9747   2.9796   3.5858   4.0982   4.5589   4.6414
     4.6900   5.0284   5.2021   5.7949   5.9692   6.0312   6.3233   6.3704
     6.4533   6.4956   6.6792   7.3941   7.7134   8.1147   8.3126   8.4100
     8.4690   8.5915   8.6185   8.6799   8.6915   8.8527   8.9103   9.0394
     9.1220   9.1630   9.4372   9.5558  11.1490  11.3315  11.4121  12.6355
    13.6800  15.0061  15.2836  15.9847  16.1299  16.2144  16.5330  16.9145
    16.9187  17.4701  17.5030  17.5771  18.0854  19.0470  19.1401  19.4049
    19.9945  20.0022  20.4300  20.5803  21.2380  21.3955  22.0057  22.3664
    22.3779  22.9145  22.9897  23.1407  23.5594  23.9568  24.1137  24.7939
    25.2024  25.3081  25.3570  25.3862  25.8183  27.0527  27.2677  27.5569
    27.6149  29.0553  29.1922  29.2048

     occupation numbers 
     1.0000   1.0000   1.0000   1.0000   1.0000   1.0000   1.0000   1.0000
     1.0000   1.0000   1.0000   1.0000   1.0000   1.0000   1.0000   1.0000
     1.0000   1.0000   1.0000   1.0000   1.0000   1.0000   1.0000   1.0000
     1.0000   1.0000   1.0000   1.0000   1.0000   1.0000   1.0000   1.0000
     1.0000   1.0000   1.0000   1.0000   1.0000   1.0000   1.0000   1.0000
     1.0000   1.0000   1.0000   1.0000   1.0000   1.0000   1.0000   1.0000
     1.0000   1.0000   0.9988   0.9636   0.0000   0.0000   0.0000   0.0000
     0.0000   0.0000   0.0000   0.0000   0.0000   0.0000   0.0000   0.0000
     0.0000   0.0000   0.0000   0.0000   0.0000   0.0000   0.0000   0.0000
     0.0000   0.0000   0.0000   0.0000   0.0000   0.0000   0.0000   0.0000
     0.0000   0.0000   0.0000   0.0000   0.0000   0.0000   0.0000   0.0000
     0.0000   0.0000   0.0000   0.0000   0.0000   0.0000   0.0000   0.0000
     0.0000   0.0000   0.0000   0.0000

          k = 0.3750-0.4896 0.0813 (  9310 PWs)   bands (ev):

   -31.1905 -15.6624 -15.6458 -11.7190 -11.6852 -11.3077  -7.6374  -7.4582
    -7.1621  -7.0715  -6.9989  -6.9018  -6.6978  -1.5133  -1.4969  -1.4782
    -1.3094  -1.1556  -0.9841   2.9907   3.5659   4.1017   4.5750   4.6416
     4.6898   5.0326   5.1791   5.7769   6.0182   6.0324   6.2754   6.3725
     6.4638   6.4792   6.6689   7.5154   7.7383   8.1234   8.3306   8.3701
     8.4143   8.5894   8.6242   8.6840   8.6971   8.8038   8.9292   8.9602
     9.1291   9.1422   9.4348   9.5539  11.2614  11.3335  11.4105  12.6450
    13.6189  15.0770  15.3645  15.8971  16.2123  16.2290  16.4977  16.5729
    16.5896  17.5731  17.6561  17.9596  18.1968  18.9124  19.2013  19.4171
    19.9659  20.0966  20.5233  20.5729  21.1797  21.2159  21.9968  22.2692
    22.6511  22.7057  22.9709  23.0090  23.2446  24.1046  24.2245  24.6443
    25.0371  25.2965  25.3238  25.5571  26.1221  27.0495  27.3538  27.8615
    27.8996  28.9038  29.2285  29.2306

     occupation numbers 
     1.0000   1.0000   1.0000   1.0000   1.0000   1.0000   1.0000   1.0000
     1.0000   1.0000   1.0000   1.0000   1.0000   1.0000   1.0000   1.0000
     1.0000   1.0000   1.0000   1.0000   1.0000   1.0000   1.0000   1.0000
     1.0000   1.0000   1.0000   1.0000   1.0000   1.0000   1.0000   1.0000
     1.0000   1.0000   1.0000   1.0000   1.0000   1.0000   1.0000   1.0000
     1.0000   1.0000   1.0000   1.0000   1.0000   1.0000   1.0000   1.0000
     1.0000   1.0000   0.9989   0.9652   0.0000   0.0000   0.0000   0.0000
     0.0000   0.0000   0.0000   0.0000   0.0000   0.0000   0.0000   0.0000
     0.0000   0.0000   0.0000   0.0000   0.0000   0.0000   0.0000   0.0000
     0.0000   0.0000   0.0000   0.0000   0.0000   0.0000   0.0000   0.0000
     0.0000   0.0000   0.0000   0.0000   0.0000   0.0000   0.0000   0.0000
     0.0000   0.0000   0.0000   0.0000   0.0000   0.0000   0.0000   0.0000
     0.0000   0.0000   0.0000   0.0000

          k = 0.3750-0.4896-0.1626 (  9300 PWs)   bands (ev):

   -31.1905 -15.6626 -15.6455 -11.7190 -11.6852 -11.3077  -7.6379  -7.4586
    -7.1588  -7.0694  -7.0006  -6.9069  -6.6955  -1.5130  -1.4985  -1.4785
    -1.3079  -1.1460  -0.9945   3.0024   3.5455   4.1050   4.5921   4.6418
     4.6896   5.0367   5.1559   5.7618   6.0336   6.0791   6.2192   6.3790
     6.4297   6.4979   6.6623   7.6137   7.8466   8.1324   8.1720   8.4188
     8.4237   8.5852   8.6337   8.6375   8.6731   8.7696   8.8639   8.9997
     9.1144   9.1361   9.4329   9.5519  11.3341  11.3717  11.4090  12.6552
    13.5544  15.1666  15.4814  15.8218  16.1313  16.2450  16.3310  16.4502
    16.5389  17.5583  17.6184  18.4403  18.5259  18.5333  19.2468  19.4323
    19.9644  20.1666  20.5848  20.6389  21.0302  21.0860  22.1414  22.1780
    22.2700  22.8070  22.9746  23.0381  23.0842  24.1041  24.4890  24.5036
    24.8640  25.2297  25.3387  25.5006  26.4806  27.0719  27.3466  28.2575
    28.6443  28.8645  28.9064  28.9497

     occupation numbers 
     1.0000   1.0000   1.0000   1.0000   1.0000   1.0000   1.0000   1.0000
     1.0000   1.0000   1.0000   1.0000   1.0000   1.0000   1.0000   1.0000
     1.0000   1.0000   1.0000   1.0000   1.0000   1.0000   1.0000   1.0000
     1.0000   1.0000   1.0000   1.0000   1.0000   1.0000   1.0000   1.0000
     1.0000   1.0000   1.0000   1.0000   1.0000   1.0000   1.0000   1.0000
     1.0000   1.0000   1.0000   1.0000   1.0000   1.0000   1.0000   1.0000
     1.0000   1.0000   0.9989   0.9667   0.0000   0.0000   0.0000   0.0000
     0.0000   0.0000   0.0000   0.0000   0.0000   0.0000   0.0000   0.0000
     0.0000   0.0000   0.0000   0.0000   0.0000   0.0000   0.0000   0.0000
     0.0000   0.0000   0.0000   0.0000   0.0000   0.0000   0.0000   0.0000
     0.0000   0.0000   0.0000   0.0000   0.0000   0.0000   0.0000   0.0000
     0.0000   0.0000   0.0000   0.0000   0.0000   0.0000   0.0000   0.0000
     0.0000   0.0000   0.0000   0.0000

          k = 0.3750-0.4896-0.0813 (  9310 PWs)   bands (ev):

   -31.1905 -15.6624 -15.6458 -11.7190 -11.6852 -11.3077  -7.6374  -7.4582
    -7.1621  -7.0715  -6.9989  -6.9018  -6.6978  -1.5133  -1.4969  -1.4782
    -1.3094  -1.1556  -0.9841   2.9907   3.5659   4.1017   4.5750   4.6416
     4.6898   5.0326   5.1791   5.7769   6.0182   6.0324   6.2754   6.3725
     6.4638   6.4792   6.6689   7.5154   7.7383   8.1234   8.3306   8.3701
     8.4143   8.5894   8.6242   8.6840   8.6971   8.8038   8.9292   8.9602
     9.1291   9.1422   9.4348   9.5539  11.2614  11.3335  11.4105  12.6450
    13.6189  15.0770  15.3645  15.8971  16.2123  16.2290  16.4977  16.5729
    16.5896  17.5731  17.6561  17.9596  18.1968  18.9124  19.2013  19.4171
    19.9659  20.0966  20.5233  20.5729  21.1797  21.2159  21.9968  22.2692
    22.6511  22.7057  22.9709  23.0090  23.2446  24.1046  24.2245  24.6443
    25.0371  25.2965  25.3238  25.5571  26.1221  27.0495  27.3538  27.8615
    27.8996  28.9038  29.2285  29.2306

     occupation numbers 
     1.0000   1.0000   1.0000   1.0000   1.0000   1.0000   1.0000   1.0000
     1.0000   1.0000   1.0000   1.0000   1.0000   1.0000   1.0000   1.0000
     1.0000   1.0000   1.0000   1.0000   1.0000   1.0000   1.0000   1.0000
     1.0000   1.0000   1.0000   1.0000   1.0000   1.0000   1.0000   1.0000
     1.0000   1.0000   1.0000   1.0000   1.0000   1.0000   1.0000   1.0000
     1.0000   1.0000   1.0000   1.0000   1.0000   1.0000   1.0000   1.0000
     1.0000   1.0000   0.9989   0.9652   0.0000   0.0000   0.0000   0.0000
     0.0000   0.0000   0.0000   0.0000   0.0000   0.0000   0.0000   0.0000
     0.0000   0.0000   0.0000   0.0000   0.0000   0.0000   0.0000   0.0000
     0.0000   0.0000   0.0000   0.0000   0.0000   0.0000   0.0000   0.0000
     0.0000   0.0000   0.0000   0.0000   0.0000   0.0000   0.0000   0.0000
     0.0000   0.0000   0.0000   0.0000   0.0000   0.0000   0.0000   0.0000
     0.0000   0.0000   0.0000   0.0000

          k = 0.3750-0.3672 0.0000 (  9307 PWs)   bands (ev):

   -31.1922 -15.6750 -15.6588 -11.6920 -11.6517 -11.3400  -7.5883  -7.4772
    -7.3067  -7.1985  -7.0481  -6.7356  -6.7218  -1.5041  -1.4635  -1.2623
    -1.2459  -1.1050  -0.9810   3.1391   3.7196   4.3230   4.6737   4.6998
     4.7292   5.0331   5.2403   5.7925   5.8783   6.1052   6.3901   6.3962
     6.5021   6.5350   6.6662   7.3867   7.6859   7.9623   8.1530   8.3070
     8.3573   8.4542   8.5446   8.6391   8.6973   8.7114   8.8936   8.9979
     9.0326   9.1424   9.2691   9.5619  11.0437  11.1234  11.2228  12.8128
    13.7456  14.9824  15.5485  15.9834  16.1126  16.2954  16.4185  16.7151
    16.8388  17.3325  17.6200  17.9785  18.0659  18.1549  18.5437  19.0367
    19.7684  20.1027  20.3389  20.7919  20.9011  21.4382  21.5491  22.0181
    22.8326  23.1128  23.6339  23.6577  24.4253  24.6359  24.7026  25.0519
    25.1746  25.3107  25.3392  25.6152  25.7818  26.1524  26.8756  27.4377
    28.1733  28.5758  28.8572  29.1195

     occupation numbers 
     1.0000   1.0000   1.0000   1.0000   1.0000   1.0000   1.0000   1.0000
     1.0000   1.0000   1.0000   1.0000   1.0000   1.0000   1.0000   1.0000
     1.0000   1.0000   1.0000   1.0000   1.0000   1.0000   1.0000   1.0000
     1.0000   1.0000   1.0000   1.0000   1.0000   1.0000   1.0000   1.0000
     1.0000   1.0000   1.0000   1.0000   1.0000   1.0000   1.0000   1.0000
     1.0000   1.0000   1.0000   1.0000   1.0000   1.0000   1.0000   1.0000
     1.0000   1.0000   1.0000   0.9583   0.0000   0.0000   0.0000   0.0000
     0.0000   0.0000   0.0000   0.0000   0.0000   0.0000   0.0000   0.0000
     0.0000   0.0000   0.0000   0.0000   0.0000   0.0000   0.0000   0.0000
     0.0000   0.0000   0.0000   0.0000   0.0000   0.0000   0.0000   0.0000
     0.0000   0.0000   0.0000   0.0000   0.0000   0.0000   0.0000   0.0000
     0.0000   0.0000   0.0000   0.0000   0.0000   0.0000   0.0000   0.0000
     0.0000   0.0000   0.0000   0.0000

          k = 0.3750-0.3672 0.0813 (  9312 PWs)   bands (ev):

   -31.1922 -15.6753 -15.6585 -11.6920 -11.6517 -11.3401  -7.5895  -7.4785
    -7.2991  -7.2008  -7.0516  -6.7369  -6.7196  -1.5049  -1.4619  -1.2652
    -1.2430  -1.0999  -0.9875   3.1492   3.7024   4.3249   4.6751   4.7138
     4.7279   5.0376   5.2182   5.7810   5.9011   6.1235   6.3241   6.4149
     6.4937   6.5524   6.6446   7.5030   7.7008   7.9733   8.1611   8.2485
     8.3685   8.4560   8.5208   8.6349   8.6842   8.7166   8.8937   9.0003
     9.0052   9.1142   9.2264   9.5587  11.1157  11.1407  11.2239  12.8373
    13.7137  14.9959  15.5852  15.9237  15.9824  16.3110  16.3559  16.6840
    16.9735  17.3074  17.6578  17.8515  18.1866  18.3306  18.5792  18.9902
    19.7825  20.1578  20.3181  20.7870  20.9490  21.3350  21.5105  22.0658
    22.4942  23.3254  23.4422  23.7145  24.2293  24.6679  24.7616  24.8966
    25.0799  25.2795  25.3670  25.6865  25.7908  26.5769  27.2057  27.5767
    28.2375  28.5900  28.6838  29.0221

     occupation numbers 
     1.0000   1.0000   1.0000   1.0000   1.0000   1.0000   1.0000   1.0000
     1.0000   1.0000   1.0000   1.0000   1.0000   1.0000   1.0000   1.0000
     1.0000   1.0000   1.0000   1.0000   1.0000   1.0000   1.0000   1.0000
     1.0000   1.0000   1.0000   1.0000   1.0000   1.0000   1.0000   1.0000
     1.0000   1.0000   1.0000   1.0000   1.0000   1.0000   1.0000   1.0000
     1.0000   1.0000   1.0000   1.0000   1.0000   1.0000   1.0000   1.0000
     1.0000   1.0000   1.0000   0.9612   0.0000   0.0000   0.0000   0.0000
     0.0000   0.0000   0.0000   0.0000   0.0000   0.0000   0.0000   0.0000
     0.0000   0.0000   0.0000   0.0000   0.0000   0.0000   0.0000   0.0000
     0.0000   0.0000   0.0000   0.0000   0.0000   0.0000   0.0000   0.0000
     0.0000   0.0000   0.0000   0.0000   0.0000   0.0000   0.0000   0.0000
     0.0000   0.0000   0.0000   0.0000   0.0000   0.0000   0.0000   0.0000
     0.0000   0.0000   0.0000   0.0000

          k = 0.3750-0.3672-0.1626 (  9304 PWs)   bands (ev):

   -31.1922 -15.6755 -15.6582 -11.6920 -11.6517 -11.3401  -7.5907  -7.4798
    -7.2911  -7.2035  -7.0552  -6.7379  -6.7177  -1.5057  -1.4604  -1.2677
    -1.2404  -1.0942  -0.9946   3.1598   3.6847   4.3267   4.6761   4.7266
     4.7293   5.0420   5.1960   5.7701   5.9244   6.1482   6.2731   6.4185
     6.4714   6.5834   6.6212   7.6061   7.7687   7.9878   8.0746   8.2452
     8.3811   8.4579   8.5090   8.6352   8.6682   8.6796   8.8870   8.9813
     9.0086   9.0842   9.2060   9.5561  11.1240  11.2010  11.2410  12.8632
    13.6796  15.0058  15.6507  15.8130  15.9045  16.2966  16.3587  16.7318
    16.8317  17.5322  17.5533  17.9108  18.1441  18.5062  18.6336  18.9362
    19.7996  20.2574  20.2576  20.7689  21.0420  21.1658  21.6494  21.9488
    22.1716  23.3501  23.5552  23.7619  24.0941  24.5548  24.7799  24.8507
    24.9876  25.2967  25.3735  25.6454  25.8829  26.8164  27.5799  27.8609
    28.3628  28.4563  28.5682  29.1551

     occupation numbers 
     1.0000   1.0000   1.0000   1.0000   1.0000   1.0000   1.0000   1.0000
     1.0000   1.0000   1.0000   1.0000   1.0000   1.0000   1.0000   1.0000
     1.0000   1.0000   1.0000   1.0000   1.0000   1.0000   1.0000   1.0000
     1.0000   1.0000   1.0000   1.0000   1.0000   1.0000   1.0000   1.0000
     1.0000   1.0000   1.0000   1.0000   1.0000   1.0000   1.0000   1.0000
     1.0000   1.0000   1.0000   1.0000   1.0000   1.0000   1.0000   1.0000
     1.0000   1.0000   1.0000   0.9634   0.0000   0.0000   0.0000   0.0000
     0.0000   0.0000   0.0000   0.0000   0.0000   0.0000   0.0000   0.0000
     0.0000   0.0000   0.0000   0.0000   0.0000   0.0000   0.0000   0.0000
     0.0000   0.0000   0.0000   0.0000   0.0000   0.0000   0.0000   0.0000
     0.0000   0.0000   0.0000   0.0000   0.0000   0.0000   0.0000   0.0000
     0.0000   0.0000   0.0000   0.0000   0.0000   0.0000   0.0000   0.0000
     0.0000   0.0000   0.0000   0.0000

          k = 0.3750-0.3672-0.0813 (  9312 PWs)   bands (ev):

   -31.1922 -15.6753 -15.6585 -11.6920 -11.6517 -11.3401  -7.5895  -7.4785
    -7.2991  -7.2008  -7.0516  -6.7369  -6.7196  -1.5049  -1.4619  -1.2652
    -1.2430  -1.0999  -0.9875   3.1492   3.7024   4.3249   4.6751   4.7138
     4.7279   5.0376   5.2182   5.7810   5.9011   6.1235   6.3241   6.4149
     6.4937   6.5524   6.6446   7.5030   7.7008   7.9733   8.1611   8.2485
     8.3685   8.4560   8.5208   8.6349   8.6842   8.7166   8.8937   9.0003
     9.0052   9.1142   9.2264   9.5587  11.1157  11.1407  11.2239  12.8373
    13.7137  14.9959  15.5852  15.9237  15.9824  16.3110  16.3559  16.6840
    16.9735  17.3074  17.6578  17.8515  18.1866  18.3306  18.5792  18.9902
    19.7825  20.1578  20.3181  20.7870  20.9490  21.3350  21.5105  22.0658
    22.4942  23.3254  23.4422  23.7145  24.2293  24.6679  24.7616  24.8966
    25.0799  25.2795  25.3670  25.6865  25.7908  26.5769  27.2057  27.5767
    28.2375  28.5900  28.6838  29.0221

     occupation numbers 
     1.0000   1.0000   1.0000   1.0000   1.0000   1.0000   1.0000   1.0000
     1.0000   1.0000   1.0000   1.0000   1.0000   1.0000   1.0000   1.0000
     1.0000   1.0000   1.0000   1.0000   1.0000   1.0000   1.0000   1.0000
     1.0000   1.0000   1.0000   1.0000   1.0000   1.0000   1.0000   1.0000
     1.0000   1.0000   1.0000   1.0000   1.0000   1.0000   1.0000   1.0000
     1.0000   1.0000   1.0000   1.0000   1.0000   1.0000   1.0000   1.0000
     1.0000   1.0000   1.0000   0.9612   0.0000   0.0000   0.0000   0.0000
     0.0000   0.0000   0.0000   0.0000   0.0000   0.0000   0.0000   0.0000
     0.0000   0.0000   0.0000   0.0000   0.0000   0.0000   0.0000   0.0000
     0.0000   0.0000   0.0000   0.0000   0.0000   0.0000   0.0000   0.0000
     0.0000   0.0000   0.0000   0.0000   0.0000   0.0000   0.0000   0.0000
     0.0000   0.0000   0.0000   0.0000   0.0000   0.0000   0.0000   0.0000
     0.0000   0.0000   0.0000   0.0000

          k = 0.3750-0.2448 0.0000 (  9294 PWs)   bands (ev):

   -31.1962 -15.7057 -15.6892 -11.7055 -11.4810 -11.4147  -7.5980  -7.5512
    -7.4424  -7.3972  -7.0840  -6.7737  -6.5987  -1.3277  -1.3033  -1.1617
    -1.0116  -0.9268  -0.8799   3.5258   3.9838   4.8002   4.9112   4.9256
     5.0463   5.1051   5.3758   5.6747   5.8136   6.2584   6.3175   6.5215
     6.5748   6.6384   6.8377   7.3402   7.5850   7.6235   7.8643   7.9346
     7.9997   8.1232   8.3969   8.5259   8.6198   8.6777   8.7328   8.7826
     8.8427   8.9423   9.2971   9.3856  10.4750  10.6305  10.6701  13.2737
    14.0183  14.8323  15.6380  16.0652  16.0761  16.3044  16.6930  16.7357
    16.7525  17.1359  17.4094  17.4893  17.5665  17.8651  18.1760  19.1469
    19.2530  19.9337  20.2583  20.6179  20.7080  20.9159  21.8996  22.3931
    22.9242  23.3527  23.6787  24.1183  24.2295  24.9543  24.9787  25.0593
    25.1247  25.4431  25.8778  26.0656  26.3005  27.1910  27.6331  27.7063
    28.1723  28.3529  28.5468  28.7646

     occupation numbers 
     1.0000   1.0000   1.0000   1.0000   1.0000   1.0000   1.0000   1.0000
     1.0000   1.0000   1.0000   1.0000   1.0000   1.0000   1.0000   1.0000
     1.0000   1.0000   1.0000   1.0000   1.0000   1.0000   1.0000   1.0000
     1.0000   1.0000   1.0000   1.0000   1.0000   1.0000   1.0000   1.0000
     1.0000   1.0000   1.0000   1.0000   1.0000   1.0000   1.0000   1.0000
     1.0000   1.0000   1.0000   1.0000   1.0000   1.0000   1.0000   1.0000
     1.0000   1.0000   1.0000   0.9998   0.0000   0.0000   0.0000   0.0000
     0.0000   0.0000   0.0000   0.0000   0.0000   0.0000   0.0000   0.0000
     0.0000   0.0000   0.0000   0.0000   0.0000   0.0000   0.0000   0.0000
     0.0000   0.0000   0.0000   0.0000   0.0000   0.0000   0.0000   0.0000
     0.0000   0.0000   0.0000   0.0000   0.0000   0.0000   0.0000   0.0000
     0.0000   0.0000   0.0000   0.0000   0.0000   0.0000   0.0000   0.0000
     0.0000   0.0000   0.0000   0.0000

          k = 0.3750-0.2448 0.0813 (  9303 PWs)   bands (ev):

   -31.1962 -15.7060 -15.6889 -11.7055 -11.4810 -11.4147  -7.6097  -7.5445
    -7.4325  -7.3949  -7.0958  -6.7683  -6.5997  -1.3261  -1.3046  -1.1581
    -1.0166  -0.9292  -0.8769   3.5339   3.9726   4.8048   4.8912   4.9292
     5.0599   5.1142   5.3598   5.6819   5.8215   6.2625   6.3298   6.4843
     6.5637   6.6207   6.8271   7.4436   7.6007   7.6271   7.8368   7.9473
     8.0015   8.1595   8.3592   8.5101   8.6097   8.6517   8.7228   8.7974
     8.8841   8.9415   9.2320   9.3434  10.4880  10.6127  10.7307  13.3052
    14.0197  14.8119  15.6641  16.0312  16.0843  16.2191  16.4822  16.7831
    16.9627  17.0929  17.3924  17.5123  17.5903  17.9238  18.2734  19.0599
    19.2311  19.9703  20.3267  20.5520  20.7671  21.0386  21.8999  22.4292
    22.4431  23.2095  23.7685  24.0014  24.1616  24.6228  25.0043  25.1273
    25.2525  25.8320  26.0438  26.2637  26.5325  27.2781  27.4764  27.7794
    28.0533  28.3586  28.5836  28.8686

     occupation numbers 
     1.0000   1.0000   1.0000   1.0000   1.0000   1.0000   1.0000   1.0000
     1.0000   1.0000   1.0000   1.0000   1.0000   1.0000   1.0000   1.0000
     1.0000   1.0000   1.0000   1.0000   1.0000   1.0000   1.0000   1.0000
     1.0000   1.0000   1.0000   1.0000   1.0000   1.0000   1.0000   1.0000
     1.0000   1.0000   1.0000   1.0000   1.0000   1.0000   1.0000   1.0000
     1.0000   1.0000   1.0000   1.0000   1.0000   1.0000   1.0000   1.0000
     1.0000   1.0000   1.0000   1.0000   0.0000   0.0000   0.0000   0.0000
     0.0000   0.0000   0.0000   0.0000   0.0000   0.0000   0.0000   0.0000
     0.0000   0.0000   0.0000   0.0000   0.0000   0.0000   0.0000   0.0000
     0.0000   0.0000   0.0000   0.0000   0.0000   0.0000   0.0000   0.0000
     0.0000   0.0000   0.0000   0.0000   0.0000   0.0000   0.0000   0.0000
     0.0000   0.0000   0.0000   0.0000   0.0000   0.0000   0.0000   0.0000
     0.0000   0.0000   0.0000   0.0000

          k = 0.3750-0.2448-0.1626 (  9284 PWs)   bands (ev):

   -31.1962 -15.7063 -15.6886 -11.7055 -11.4810 -11.4147  -7.6185  -7.5403
    -7.4239  -7.3907  -7.1079  -6.7630  -6.6008  -1.3245  -1.3058  -1.1543
    -1.0216  -0.9315  -0.8741   3.5423   3.9609   4.8109   4.8738   4.9309
     5.0722   5.1231   5.3443   5.6855   5.8333   6.2665   6.3620   6.4188
     6.5570   6.6068   6.8245   7.5762   7.5817   7.6625   7.7666   7.9674
     8.0043   8.2421   8.2847   8.4989   8.5488   8.6860   8.6994   8.8080
     8.9215   8.9689   9.1112   9.3312  10.4991  10.6039  10.7793  13.3390
    14.0189  14.7866  15.7930  15.8839  16.0870  16.1648  16.3599  16.8200
    17.0567  17.0960  17.3855  17.5816  17.5920  17.9000  18.4232  18.9540
    19.2094  20.0059  20.3738  20.5312  20.7776  21.4386  21.7420  21.9052
    22.4790  23.1431  23.5960  23.8741  24.2409  24.7688  25.0495  25.1619
    25.2327  25.7783  26.1716  26.2706  27.0219  27.4490  27.4715  27.8944
    27.9712  28.2497  28.6707  29.0337

     occupation numbers 
     1.0000   1.0000   1.0000   1.0000   1.0000   1.0000   1.0000   1.0000
     1.0000   1.0000   1.0000   1.0000   1.0000   1.0000   1.0000   1.0000
     1.0000   1.0000   1.0000   1.0000   1.0000   1.0000   1.0000   1.0000
     1.0000   1.0000   1.0000   1.0000   1.0000   1.0000   1.0000   1.0000
     1.0000   1.0000   1.0000   1.0000   1.0000   1.0000   1.0000   1.0000
     1.0000   1.0000   1.0000   1.0000   1.0000   1.0000   1.0000   1.0000
     1.0000   1.0000   1.0000   1.0000   0.0000   0.0000   0.0000   0.0000
     0.0000   0.0000   0.0000   0.0000   0.0000   0.0000   0.0000   0.0000
     0.0000   0.0000   0.0000   0.0000   0.0000   0.0000   0.0000   0.0000
     0.0000   0.0000   0.0000   0.0000   0.0000   0.0000   0.0000   0.0000
     0.0000   0.0000   0.0000   0.0000   0.0000   0.0000   0.0000   0.0000
     0.0000   0.0000   0.0000   0.0000   0.0000   0.0000   0.0000   0.0000
     0.0000   0.0000   0.0000   0.0000

          k = 0.3750-0.2448-0.0813 (  9303 PWs)   bands (ev):

   -31.1962 -15.7060 -15.6889 -11.7055 -11.4810 -11.4147  -7.6097  -7.5445
    -7.4325  -7.3949  -7.0958  -6.7683  -6.5997  -1.3261  -1.3046  -1.1581
    -1.0166  -0.9292  -0.8769   3.5339   3.9726   4.8048   4.8912   4.9292
     5.0599   5.1142   5.3598   5.6819   5.8215   6.2625   6.3298   6.4843
     6.5637   6.6207   6.8271   7.4436   7.6007   7.6271   7.8368   7.9473
     8.0015   8.1595   8.3592   8.5101   8.6097   8.6517   8.7228   8.7974
     8.8841   8.9415   9.2320   9.3434  10.4880  10.6127  10.7307  13.3052
    14.0197  14.8119  15.6641  16.0312  16.0843  16.2191  16.4822  16.7831
    16.9627  17.0929  17.3924  17.5123  17.5903  17.9238  18.2734  19.0599
    19.2311  19.9703  20.3267  20.5520  20.7671  21.0386  21.8999  22.4292
    22.4431  23.2095  23.7685  24.0014  24.1616  24.6228  25.0043  25.1273
    25.2525  25.8320  26.0438  26.2637  26.5325  27.2781  27.4764  27.7794
    28.0533  28.3586  28.5836  28.8686

     occupation numbers 
     1.0000   1.0000   1.0000   1.0000   1.0000   1.0000   1.0000   1.0000
     1.0000   1.0000   1.0000   1.0000   1.0000   1.0000   1.0000   1.0000
     1.0000   1.0000   1.0000   1.0000   1.0000   1.0000   1.0000   1.0000
     1.0000   1.0000   1.0000   1.0000   1.0000   1.0000   1.0000   1.0000
     1.0000   1.0000   1.0000   1.0000   1.0000   1.0000   1.0000   1.0000
     1.0000   1.0000   1.0000   1.0000   1.0000   1.0000   1.0000   1.0000
     1.0000   1.0000   1.0000   1.0000   0.0000   0.0000   0.0000   0.0000
     0.0000   0.0000   0.0000   0.0000   0.0000   0.0000   0.0000   0.0000
     0.0000   0.0000   0.0000   0.0000   0.0000   0.0000   0.0000   0.0000
     0.0000   0.0000   0.0000   0.0000   0.0000   0.0000   0.0000   0.0000
     0.0000   0.0000   0.0000   0.0000   0.0000   0.0000   0.0000   0.0000
     0.0000   0.0000   0.0000   0.0000   0.0000   0.0000   0.0000   0.0000
     0.0000   0.0000   0.0000   0.0000

          k = 0.3750-0.1224 0.0000 (  9289 PWs)   bands (ev):

   -31.2002 -15.7359 -15.7193 -11.7194 -11.4849 -11.2897  -7.7915  -7.6674
    -7.6210  -7.2584  -7.1399  -6.8251  -6.5300  -1.2953  -1.0265  -0.9797
    -0.9095  -0.6954  -0.6801   3.8785   4.1333   4.9883   5.1673   5.1861
     5.4259   5.6732   5.7067   5.7149   5.9235   6.1247   6.3188   6.4061
     6.7272   6.8426   7.1109   7.1763   7.3307   7.4538   7.5425   7.6114
     7.7007   7.8752   8.1659   8.3029   8.4240   8.4625   8.6898   8.7781
     8.7979   8.8490   9.0459   9.3407   9.5768   9.8955   9.9555  13.7192
    14.4526  14.6329  15.5765  15.8987  16.0654  16.3123  16.4986  16.7592
    16.7787  17.0897  17.1863  17.4693  17.6366  18.0279  18.4151  18.6176
    19.0479  19.4257  19.8971  20.6406  20.8054  21.1226  21.9095  22.2743
    22.8481  23.3366  23.4601  23.7155  24.5160  24.8232  24.8351  24.8772
    25.5857  26.0150  26.3024  26.4097  26.6735  27.3018  27.6758  27.8822
    27.9192  28.2503  28.8761  28.8912

     occupation numbers 
     1.0000   1.0000   1.0000   1.0000   1.0000   1.0000   1.0000   1.0000
     1.0000   1.0000   1.0000   1.0000   1.0000   1.0000   1.0000   1.0000
     1.0000   1.0000   1.0000   1.0000   1.0000   1.0000   1.0000   1.0000
     1.0000   1.0000   1.0000   1.0000   1.0000   1.0000   1.0000   1.0000
     1.0000   1.0000   1.0000   1.0000   1.0000   1.0000   1.0000   1.0000
     1.0000   1.0000   1.0000   1.0000   1.0000   1.0000   1.0000   1.0000
     1.0000   1.0000   1.0000   1.0000   0.9426   0.0413   0.0091   0.0000
     0.0000   0.0000   0.0000   0.0000   0.0000   0.0000   0.0000   0.0000
     0.0000   0.0000   0.0000   0.0000   0.0000   0.0000   0.0000   0.0000
     0.0000   0.0000   0.0000   0.0000   0.0000   0.0000   0.0000   0.0000
     0.0000   0.0000   0.0000   0.0000   0.0000   0.0000   0.0000   0.0000
     0.0000   0.0000   0.0000   0.0000   0.0000   0.0000   0.0000   0.0000
     0.0000   0.0000   0.0000   0.0000

          k = 0.3750-0.1224 0.0813 (  9281 PWs)   bands (ev):

   -31.2002 -15.7363 -15.7189 -11.7194 -11.4849 -11.2897  -7.7901  -7.7007
    -7.5778  -7.2582  -7.1607  -6.8142  -6.5317  -1.2914  -1.0297  -0.9835
    -0.9070  -0.6970  -0.6785   3.8847   4.1271   4.9944   5.1376   5.1978
     5.4366   5.6690   5.7049   5.7324   5.9168   6.1657   6.3186   6.4004
     6.6021   6.8606   7.1022   7.2009   7.3885   7.4633   7.5531   7.5933
     7.7219   7.9296   8.1584   8.2676   8.4176   8.4341   8.7120   8.7752
     8.7942   8.8794   9.0328   9.2641   9.6011   9.8080  10.0482  13.7382
    14.4314  14.6483  15.6431  15.8904  16.0664  16.2520  16.4575  16.6867
    16.8405  16.9819  17.2039  17.5146  17.6437  18.1573  18.4260  18.6630
    19.0257  19.4935  19.9077  20.6179  20.7325  21.1279  22.0207  22.1767
    22.7296  23.2807  23.3959  23.6718  23.8437  24.6784  25.0179  25.5553
    25.8791  26.0962  26.3240  26.6172  26.6822  27.2919  27.5479  27.8528
    28.0216  28.2539  28.6483  28.7541

     occupation numbers 
     1.0000   1.0000   1.0000   1.0000   1.0000   1.0000   1.0000   1.0000
     1.0000   1.0000   1.0000   1.0000   1.0000   1.0000   1.0000   1.0000
     1.0000   1.0000   1.0000   1.0000   1.0000   1.0000   1.0000   1.0000
     1.0000   1.0000   1.0000   1.0000   1.0000   1.0000   1.0000   1.0000
     1.0000   1.0000   1.0000   1.0000   1.0000   1.0000   1.0000   1.0000
     1.0000   1.0000   1.0000   1.0000   1.0000   1.0000   1.0000   1.0000
     1.0000   1.0000   1.0000   1.0000   0.9073   0.2041   0.0004   0.0000
     0.0000   0.0000   0.0000   0.0000   0.0000   0.0000   0.0000   0.0000
     0.0000   0.0000   0.0000   0.0000   0.0000   0.0000   0.0000   0.0000
     0.0000   0.0000   0.0000   0.0000   0.0000   0.0000   0.0000   0.0000
     0.0000   0.0000   0.0000   0.0000   0.0000   0.0000   0.0000   0.0000
     0.0000   0.0000   0.0000   0.0000   0.0000   0.0000   0.0000   0.0000
     0.0000   0.0000   0.0000   0.0000

          k = 0.3750-0.1224-0.1626 (  9284 PWs)   bands (ev):

   -31.2002 -15.7367 -15.7185 -11.7194 -11.4849 -11.2897  -7.7884  -7.7195
    -7.5480  -7.2577  -7.1822  -6.8040  -6.5335  -1.2873  -1.0334  -0.9868
    -0.9048  -0.6984  -0.6770   3.8912   4.1206   5.0020   5.1151   5.2012
     5.4476   5.6601   5.7189   5.7395   5.9056   6.2599   6.3275   6.3417
     6.4937   6.8667   7.1042   7.2109   7.4260   7.4947   7.5464   7.5820
     7.7498   8.0085   8.1300   8.2269   8.3769   8.4394   8.7310   8.7723
     8.7906   8.9466   9.0015   9.1719   9.6283   9.7601  10.0962  13.7584
    14.4077  14.6652  15.7317  15.9284  15.9810  16.2204  16.3943  16.6446
    16.8603  16.9213  17.2916  17.4864  17.6226  18.2321  18.5377  18.6860
    18.9928  19.5838  19.8921  20.5503  20.7416  21.1298  22.0816  22.1884
    22.4410  22.9981  23.3377  23.8016  23.8513  24.6401  25.0835  25.5786
    25.9078  25.9888  26.6701  26.6984  27.1894  27.2906  27.5102  27.9274
    28.0127  28.2078  28.5060  28.5403

     occupation numbers 
     1.0000   1.0000   1.0000   1.0000   1.0000   1.0000   1.0000   1.0000
     1.0000   1.0000   1.0000   1.0000   1.0000   1.0000   1.0000   1.0000
     1.0000   1.0000   1.0000   1.0000   1.0000   1.0000   1.0000   1.0000
     1.0000   1.0000   1.0000   1.0000   1.0000   1.0000   1.0000   1.0000
     1.0000   1.0000   1.0000   1.0000   1.0000   1.0000   1.0000   1.0000
     1.0000   1.0000   1.0000   1.0000   1.0000   1.0000   1.0000   1.0000
     1.0000   1.0000   1.0000   1.0000   0.8511   0.3712   0.0001   0.0000
     0.0000   0.0000   0.0000   0.0000   0.0000   0.0000   0.0000   0.0000
     0.0000   0.0000   0.0000   0.0000   0.0000   0.0000   0.0000   0.0000
     0.0000   0.0000   0.0000   0.0000   0.0000   0.0000   0.0000   0.0000
     0.0000   0.0000   0.0000   0.0000   0.0000   0.0000   0.0000   0.0000
     0.0000   0.0000   0.0000   0.0000   0.0000   0.0000   0.0000   0.0000
     0.0000   0.0000   0.0000   0.0000

          k = 0.3750-0.1224-0.0813 (  9281 PWs)   bands (ev):

   -31.2002 -15.7363 -15.7189 -11.7194 -11.4849 -11.2897  -7.7901  -7.7007
    -7.5778  -7.2582  -7.1607  -6.8142  -6.5317  -1.2914  -1.0297  -0.9835
    -0.9070  -0.6970  -0.6785   3.8847   4.1271   4.9944   5.1376   5.1978
     5.4366   5.6690   5.7049   5.7324   5.9168   6.1657   6.3186   6.4004
     6.6021   6.8606   7.1022   7.2009   7.3885   7.4633   7.5531   7.5933
     7.7219   7.9296   8.1584   8.2676   8.4176   8.4341   8.7120   8.7752
     8.7942   8.8794   9.0328   9.2641   9.6011   9.8080  10.0482  13.7382
    14.4314  14.6483  15.6431  15.8904  16.0664  16.2520  16.4575  16.6867
    16.8405  16.9819  17.2039  17.5146  17.6437  18.1573  18.4260  18.6630
    19.0257  19.4935  19.9077  20.6179  20.7325  21.1279  22.0207  22.1767
    22.7296  23.2807  23.3959  23.6718  23.8437  24.6784  25.0179  25.5553
    25.8791  26.0962  26.3240  26.6172  26.6822  27.2919  27.5479  27.8528
    28.0216  28.2539  28.6483  28.7541

     occupation numbers 
     1.0000   1.0000   1.0000   1.0000   1.0000   1.0000   1.0000   1.0000
     1.0000   1.0000   1.0000   1.0000   1.0000   1.0000   1.0000   1.0000
     1.0000   1.0000   1.0000   1.0000   1.0000   1.0000   1.0000   1.0000
     1.0000   1.0000   1.0000   1.0000   1.0000   1.0000   1.0000   1.0000
     1.0000   1.0000   1.0000   1.0000   1.0000   1.0000   1.0000   1.0000
     1.0000   1.0000   1.0000   1.0000   1.0000   1.0000   1.0000   1.0000
     1.0000   1.0000   1.0000   1.0000   0.9073   0.2041   0.0004   0.0000
     0.0000   0.0000   0.0000   0.0000   0.0000   0.0000   0.0000   0.0000
     0.0000   0.0000   0.0000   0.0000   0.0000   0.0000   0.0000   0.0000
     0.0000   0.0000   0.0000   0.0000   0.0000   0.0000   0.0000   0.0000
     0.0000   0.0000   0.0000   0.0000   0.0000   0.0000   0.0000   0.0000
     0.0000   0.0000   0.0000   0.0000   0.0000   0.0000   0.0000   0.0000
     0.0000   0.0000   0.0000   0.0000

          k =-0.5000 0.0000 0.0000 (  9278 PWs)   bands (ev):

   -31.1997 -15.7274 -15.7122 -11.8008 -11.4714 -11.1997  -7.7890  -7.7623
    -7.7332  -7.1877  -7.1518  -6.8951  -6.5085  -1.3136  -0.9994  -0.8163
    -0.7228  -0.6304  -0.6087   3.8559   4.0296   5.0239   5.3065   5.4387
     5.4528   5.9263   5.9354   5.9592   5.9848   5.9888   6.1123   6.3517
     6.5266   6.7050   6.9658   7.1726   7.1746   7.4681   7.5262   7.6149
     7.6927   7.8406   7.8885   8.3855   8.4209   8.4522   8.6865   8.6948
     8.8525   8.9200   8.9288   9.0639   9.1091   9.4190   9.6204  13.9830
    14.8220  14.8376  15.7370  16.2200  16.3188  16.3647  16.4152  16.6168
    16.7960  16.9202  17.1545  17.5020  17.5430  18.1052  18.8079  19.0998
    19.1168  19.5404  20.5458  20.8195  20.8736  21.8329  22.0227  22.1462
    22.5214  22.6092  23.1117  23.2179  23.3108  24.5132  24.8635  25.7537
    26.3762  26.4692  26.5183  26.6087  26.7696  26.8568  26.9077  27.0892
    27.7128  28.0755  28.2457  28.6462

     occupation numbers 
     1.0000   1.0000   1.0000   1.0000   1.0000   1.0000   1.0000   1.0000
     1.0000   1.0000   1.0000   1.0000   1.0000   1.0000   1.0000   1.0000
     1.0000   1.0000   1.0000   1.0000   1.0000   1.0000   1.0000   1.0000
     1.0000   1.0000   1.0000   1.0000   1.0000   1.0000   1.0000   1.0000
     1.0000   1.0000   1.0000   1.0000   1.0000   1.0000   1.0000   1.0000
     1.0000   1.0000   1.0000   1.0000   1.0000   1.0000   1.0000   1.0000
     1.0000   1.0000   1.0000   1.0000   1.0000   0.9994   0.8694   0.0000
     0.0000   0.0000   0.0000   0.0000   0.0000   0.0000   0.0000   0.0000
     0.0000   0.0000   0.0000   0.0000   0.0000   0.0000   0.0000   0.0000
     0.0000   0.0000   0.0000   0.0000   0.0000   0.0000   0.0000   0.0000
     0.0000   0.0000   0.0000   0.0000   0.0000   0.0000   0.0000   0.0000
     0.0000   0.0000   0.0000   0.0000   0.0000   0.0000   0.0000   0.0000
     0.0000   0.0000   0.0000   0.0000

          k =-0.5000 0.0000 0.0813 (  9278 PWs)   bands (ev):

   -31.1997 -15.7277 -15.7118 -11.8008 -11.4714 -11.1997  -7.8142  -7.7888
    -7.6622  -7.1948  -7.1879  -6.8673  -6.5124  -1.3056  -1.0086  -0.8164
    -0.7228  -0.6311  -0.6080   3.8601   4.0257   5.0232   5.3136   5.4378
     5.4529   5.9278   5.9407   5.9854   5.9900   5.9960   6.1086   6.3688
     6.5228   6.5783   6.9552   7.1744   7.1943   7.4858   7.5282   7.6176
     7.6896   7.8950   7.9616   8.3636   8.3649   8.4522   8.6891   8.6923
     8.8504   8.9166   8.9288   9.0962   9.1048   9.3311   9.6671  14.0174
    14.7695  14.8376  15.7553  16.1525  16.1688  16.4350  16.5060  16.5464
    16.7864  16.9116  17.3022  17.4709  17.8502  18.0218  18.7091  19.1020
    19.1147  19.6017  20.3226  20.4364  21.3829  21.7360  22.1099  22.2807
    22.6121  22.6223  23.0961  23.2358  23.3360  23.3398  25.5035  26.2032
    26.2713  26.2760  26.4616  26.4959  26.6837  27.1752  27.2137  27.2478
    27.9291  28.1777  28.2680  28.4562

     occupation numbers 
     1.0000   1.0000   1.0000   1.0000   1.0000   1.0000   1.0000   1.0000
     1.0000   1.0000   1.0000   1.0000   1.0000   1.0000   1.0000   1.0000
     1.0000   1.0000   1.0000   1.0000   1.0000   1.0000   1.0000   1.0000
     1.0000   1.0000   1.0000   1.0000   1.0000   1.0000   1.0000   1.0000
     1.0000   1.0000   1.0000   1.0000   1.0000   1.0000   1.0000   1.0000
     1.0000   1.0000   1.0000   1.0000   1.0000   1.0000   1.0000   1.0000
     1.0000   1.0000   1.0000   1.0000   1.0000   1.0000   0.7382   0.0000
     0.0000   0.0000   0.0000   0.0000   0.0000   0.0000   0.0000   0.0000
     0.0000   0.0000   0.0000   0.0000   0.0000   0.0000   0.0000   0.0000
     0.0000   0.0000   0.0000   0.0000   0.0000   0.0000   0.0000   0.0000
     0.0000   0.0000   0.0000   0.0000   0.0000   0.0000   0.0000   0.0000
     0.0000   0.0000   0.0000   0.0000   0.0000   0.0000   0.0000   0.0000
     0.0000   0.0000   0.0000   0.0000

          k =-0.5000 0.0000-0.1626 (  9284 PWs)   bands (ev):

   -31.1997 -15.7281 -15.7115 -11.8008 -11.4715 -11.1997  -7.8374  -7.7886
    -7.6163  -7.2366  -7.1882  -6.8439  -6.5166  -1.2971  -1.0183  -0.8164
    -0.7227  -0.6318  -0.6073   3.8645   4.0216   5.0226   5.3201   5.4368
     5.4530   5.9219   5.9239   5.9912   6.0058   6.0897   6.1045   6.3513
     6.3835   6.6087   6.9466   7.1542   7.1742   7.5298   7.5438   7.6206
     7.6862   7.9404   8.0655   8.2770   8.3378   8.4523   8.6898   8.6916
     8.8482   8.9132   8.9287   9.1006   9.1800   9.2070   9.6987  14.0576
    14.7098  14.8376  15.7753  16.0574  16.1278  16.4536  16.4932  16.6232
    16.7388  16.9209  17.4392  17.4694  17.9017  18.2632  18.4728  19.1053
    19.1115  19.7192  20.0674  20.2884  21.7272  21.7358  22.0940  22.3284
    22.6162  22.6712  22.8456  23.0831  23.2539  23.3588  25.2473  26.1065
    26.1071  26.2967  26.5271  26.7727  27.1871  27.3335  27.5403  27.6333
    27.7369  28.1424  28.5601  28.6278

     occupation numbers 
     1.0000   1.0000   1.0000   1.0000   1.0000   1.0000   1.0000   1.0000
     1.0000   1.0000   1.0000   1.0000   1.0000   1.0000   1.0000   1.0000
     1.0000   1.0000   1.0000   1.0000   1.0000   1.0000   1.0000   1.0000
     1.0000   1.0000   1.0000   1.0000   1.0000   1.0000   1.0000   1.0000
     1.0000   1.0000   1.0000   1.0000   1.0000   1.0000   1.0000   1.0000
     1.0000   1.0000   1.0000   1.0000   1.0000   1.0000   1.0000   1.0000
     1.0000   1.0000   1.0000   1.0000   1.0000   1.0000   0.6215   0.0000
     0.0000   0.0000   0.0000   0.0000   0.0000   0.0000   0.0000   0.0000
     0.0000   0.0000   0.0000   0.0000   0.0000   0.0000   0.0000   0.0000
     0.0000   0.0000   0.0000   0.0000   0.0000   0.0000   0.0000   0.0000
     0.0000   0.0000   0.0000   0.0000   0.0000   0.0000   0.0000   0.0000
     0.0000   0.0000   0.0000   0.0000   0.0000   0.0000   0.0000   0.0000
     0.0000   0.0000   0.0000   0.0000

          k =-0.5000 0.0000-0.0813 (  9278 PWs)   bands (ev):

   -31.1997 -15.7277 -15.7118 -11.8008 -11.4714 -11.1997  -7.8142  -7.7888
    -7.6622  -7.1948  -7.1879  -6.8673  -6.5124  -1.3056  -1.0086  -0.8164
    -0.7228  -0.6311  -0.6080   3.8601   4.0257   5.0232   5.3136   5.4378
     5.4529   5.9278   5.9407   5.9854   5.9900   5.9960   6.1086   6.3688
     6.5228   6.5783   6.9552   7.1744   7.1943   7.4858   7.5282   7.6176
     7.6896   7.8950   7.9616   8.3636   8.3649   8.4522   8.6891   8.6923
     8.8504   8.9166   8.9288   9.0962   9.1048   9.3311   9.6671  14.0174
    14.7695  14.8376  15.7553  16.1525  16.1688  16.4350  16.5060  16.5464
    16.7864  16.9116  17.3022  17.4709  17.8502  18.0218  18.7091  19.1020
    19.1147  19.6017  20.3226  20.4364  21.3829  21.7360  22.1099  22.2807
    22.6121  22.6223  23.0961  23.2358  23.3360  23.3398  25.5035  26.2032
    26.2713  26.2760  26.4616  26.4959  26.6837  27.1752  27.2137  27.2478
    27.9291  28.1777  28.2680  28.4562

     occupation numbers 
     1.0000   1.0000   1.0000   1.0000   1.0000   1.0000   1.0000   1.0000
     1.0000   1.0000   1.0000   1.0000   1.0000   1.0000   1.0000   1.0000
     1.0000   1.0000   1.0000   1.0000   1.0000   1.0000   1.0000   1.0000
     1.0000   1.0000   1.0000   1.0000   1.0000   1.0000   1.0000   1.0000
     1.0000   1.0000   1.0000   1.0000   1.0000   1.0000   1.0000   1.0000
     1.0000   1.0000   1.0000   1.0000   1.0000   1.0000   1.0000   1.0000
     1.0000   1.0000   1.0000   1.0000   1.0000   1.0000   0.7382   0.0000
     0.0000   0.0000   0.0000   0.0000   0.0000   0.0000   0.0000   0.0000
     0.0000   0.0000   0.0000   0.0000   0.0000   0.0000   0.0000   0.0000
     0.0000   0.0000   0.0000   0.0000   0.0000   0.0000   0.0000   0.0000
     0.0000   0.0000   0.0000   0.0000   0.0000   0.0000   0.0000   0.0000
     0.0000   0.0000   0.0000   0.0000   0.0000   0.0000   0.0000   0.0000
     0.0000   0.0000   0.0000   0.0000

          k =-0.5000 0.1224 0.0000 (  9272 PWs)   bands (ev):

   -31.1980 -15.7156 -15.7005 -11.7946 -11.4441 -11.2859  -7.7296  -7.6799
    -7.6679  -7.2458  -7.1247  -6.8633  -6.5220  -1.3062  -0.9996  -0.9419
    -0.8249  -0.7986  -0.7701   3.7287   3.9867   4.9894   5.2144   5.3644
     5.4240   5.4832   5.5016   5.6602   5.8908   6.0904   6.3241   6.4172
     6.6682   6.8025   7.0777   7.0844   7.3603   7.4621   7.5947   7.6610
     7.6678   7.8813   8.1056   8.4143   8.4695   8.4900   8.5999   8.8092
     8.8855   8.8923   9.0898   9.3031   9.5701   9.8967   9.9266  13.7466
    14.4311  14.8983  15.8763  15.9515  16.3543  16.5304  16.5554  16.7519
    16.8618  17.0250  17.3222  17.4141  17.4439  18.0807  18.4324  18.9899
    18.9923  19.9776  20.5669  20.6602  21.5396  21.8630  22.2086  22.2367
    22.4225  22.6276  23.1429  23.2392  23.3283  24.6779  24.8367  25.1638
    25.4281  25.5083  25.9327  26.2486  27.3539  27.5127  27.6215  27.6940
    27.8054  27.9424  28.7247  28.9336

     occupation numbers 
     1.0000   1.0000   1.0000   1.0000   1.0000   1.0000   1.0000   1.0000
     1.0000   1.0000   1.0000   1.0000   1.0000   1.0000   1.0000   1.0000
     1.0000   1.0000   1.0000   1.0000   1.0000   1.0000   1.0000   1.0000
     1.0000   1.0000   1.0000   1.0000   1.0000   1.0000   1.0000   1.0000
     1.0000   1.0000   1.0000   1.0000   1.0000   1.0000   1.0000   1.0000
     1.0000   1.0000   1.0000   1.0000   1.0000   1.0000   1.0000   1.0000
     1.0000   1.0000   1.0000   1.0000   0.9501   0.0402   0.0197   0.0000
     0.0000   0.0000   0.0000   0.0000   0.0000   0.0000   0.0000   0.0000
     0.0000   0.0000   0.0000   0.0000   0.0000   0.0000   0.0000   0.0000
     0.0000   0.0000   0.0000   0.0000   0.0000   0.0000   0.0000   0.0000
     0.0000   0.0000   0.0000   0.0000   0.0000   0.0000   0.0000   0.0000
     0.0000   0.0000   0.0000   0.0000   0.0000   0.0000   0.0000   0.0000
     0.0000   0.0000   0.0000   0.0000

          k =-0.5000 0.1224 0.0813 (  9288 PWs)   bands (ev):

   -31.1980 -15.7160 -15.7002 -11.7946 -11.4441 -11.2859  -7.7676  -7.6797
    -7.6122  -7.2460  -7.1630  -6.8391  -6.5257  -1.2999  -1.0067  -0.9419
    -0.8250  -0.7973  -0.7717   3.7339   3.9814   4.9960   5.1850   5.3525
     5.4340   5.5194   5.5194   5.6611   5.8710   6.1345   6.3118   6.4204
     6.5495   6.8301   7.0747   7.0756   7.3977   7.4917   7.5714   7.6604
     7.6737   7.9403   8.1323   8.3944   8.4023   8.4943   8.6688   8.8064
     8.8746   8.8909   9.0862   9.2259   9.5832   9.7867  10.0498  13.7620
    14.4474  14.8483  15.9715  15.9838  16.2229  16.5301  16.6398  16.7659
    16.8295  16.9096  17.1937  17.4312  17.5394  18.2910  18.3982  18.9928
    19.0089  20.0470  20.5254  20.5883  21.5225  21.8805  22.2072  22.2744
    22.3890  22.6338  23.0622  23.2020  23.4910  23.5541  25.1798  25.2021
    25.8078  25.8663  26.2557  26.3857  27.1676  27.3396  27.5549  27.7020
    27.8154  28.2075  28.5000  28.8157

     occupation numbers 
     1.0000   1.0000   1.0000   1.0000   1.0000   1.0000   1.0000   1.0000
     1.0000   1.0000   1.0000   1.0000   1.0000   1.0000   1.0000   1.0000
     1.0000   1.0000   1.0000   1.0000   1.0000   1.0000   1.0000   1.0000
     1.0000   1.0000   1.0000   1.0000   1.0000   1.0000   1.0000   1.0000
     1.0000   1.0000   1.0000   1.0000   1.0000   1.0000   1.0000   1.0000
     1.0000   1.0000   1.0000   1.0000   1.0000   1.0000   1.0000   1.0000
     1.0000   1.0000   1.0000   1.0000   0.9344   0.2725   0.0004   0.0000
     0.0000   0.0000   0.0000   0.0000   0.0000   0.0000   0.0000   0.0000
     0.0000   0.0000   0.0000   0.0000   0.0000   0.0000   0.0000   0.0000
     0.0000   0.0000   0.0000   0.0000   0.0000   0.0000   0.0000   0.0000
     0.0000   0.0000   0.0000   0.0000   0.0000   0.0000   0.0000   0.0000
     0.0000   0.0000   0.0000   0.0000   0.0000   0.0000   0.0000   0.0000
     0.0000   0.0000   0.0000   0.0000

          k =-0.5000 0.1224-0.1626 (  9296 PWs)   bands (ev):

   -31.1980 -15.7163 -15.6998 -11.7946 -11.4441 -11.2859  -7.7884  -7.6795
    -7.5705  -7.2462  -7.2008  -6.8183  -6.5295  -1.2933  -1.0141  -0.9418
    -0.8250  -0.7957  -0.7735   3.7393   3.9759   5.0039   5.1582   5.3445
     5.4383   5.5393   5.5539   5.6625   5.8486   6.2130   6.3018   6.4125
     6.4208   6.8541   7.0631   7.0688   7.4429   7.5029   7.5386   7.6785
     7.6804   8.0122   8.1572   8.3355   8.3715   8.4988   8.7563   8.8036
     8.8424   8.8895   9.0827   9.1379   9.5984   9.7410  10.1066  13.7784
    14.4638  14.7992  16.0710  16.0831  16.1449  16.3982  16.6634  16.7264
    16.8241  16.8309  17.4003  17.4014  17.4137  18.3640  18.5065  18.9955
    19.0179  20.2006  20.3110  20.6099  21.5125  21.9083  22.2360  22.3081
    22.3454  22.6498  22.7789  23.1857  23.2182  23.6422  25.1564  25.2036
    25.7818  26.2447  26.3011  26.5616  27.1981  27.4485  27.8448  27.8781
    28.0028  28.2044  28.2153  28.3240

     occupation numbers 
     1.0000   1.0000   1.0000   1.0000   1.0000   1.0000   1.0000   1.0000
     1.0000   1.0000   1.0000   1.0000   1.0000   1.0000   1.0000   1.0000
     1.0000   1.0000   1.0000   1.0000   1.0000   1.0000   1.0000   1.0000
     1.0000   1.0000   1.0000   1.0000   1.0000   1.0000   1.0000   1.0000
     1.0000   1.0000   1.0000   1.0000   1.0000   1.0000   1.0000   1.0000
     1.0000   1.0000   1.0000   1.0000   1.0000   1.0000   1.0000   1.0000
     1.0000   1.0000   1.0000   1.0000   0.9118   0.4483   0.0000   0.0000
     0.0000   0.0000   0.0000   0.0000   0.0000   0.0000   0.0000   0.0000
     0.0000   0.0000   0.0000   0.0000   0.0000   0.0000   0.0000   0.0000
     0.0000   0.0000   0.0000   0.0000   0.0000   0.0000   0.0000   0.0000
     0.0000   0.0000   0.0000   0.0000   0.0000   0.0000   0.0000   0.0000
     0.0000   0.0000   0.0000   0.0000   0.0000   0.0000   0.0000   0.0000
     0.0000   0.0000   0.0000   0.0000

          k =-0.5000 0.1224-0.0813 (  9288 PWs)   bands (ev):

   -31.1980 -15.7160 -15.7002 -11.7946 -11.4441 -11.2859  -7.7676  -7.6797
    -7.6122  -7.2460  -7.1630  -6.8391  -6.5257  -1.2999  -1.0067  -0.9419
    -0.8250  -0.7973  -0.7717   3.7339   3.9814   4.9960   5.1850   5.3525
     5.4340   5.5194   5.5194   5.6611   5.8710   6.1345   6.3118   6.4204
     6.5495   6.8301   7.0747   7.0756   7.3977   7.4917   7.5714   7.6604
     7.6737   7.9403   8.1323   8.3944   8.4023   8.4943   8.6688   8.8064
     8.8746   8.8909   9.0862   9.2259   9.5832   9.7867  10.0498  13.7620
    14.4474  14.8483  15.9715  15.9838  16.2229  16.5301  16.6398  16.7659
    16.8295  16.9096  17.1937  17.4312  17.5394  18.2910  18.3982  18.9928
    19.0089  20.0470  20.5254  20.5883  21.5225  21.8805  22.2072  22.2744
    22.3890  22.6338  23.0622  23.2020  23.4910  23.5541  25.1798  25.2021
    25.8078  25.8663  26.2557  26.3857  27.1676  27.3396  27.5549  27.7020
    27.8154  28.2075  28.5000  28.8157

     occupation numbers 
     1.0000   1.0000   1.0000   1.0000   1.0000   1.0000   1.0000   1.0000
     1.0000   1.0000   1.0000   1.0000   1.0000   1.0000   1.0000   1.0000
     1.0000   1.0000   1.0000   1.0000   1.0000   1.0000   1.0000   1.0000
     1.0000   1.0000   1.0000   1.0000   1.0000   1.0000   1.0000   1.0000
     1.0000   1.0000   1.0000   1.0000   1.0000   1.0000   1.0000   1.0000
     1.0000   1.0000   1.0000   1.0000   1.0000   1.0000   1.0000   1.0000
     1.0000   1.0000   1.0000   1.0000   0.9344   0.2725   0.0004   0.0000
     0.0000   0.0000   0.0000   0.0000   0.0000   0.0000   0.0000   0.0000
     0.0000   0.0000   0.0000   0.0000   0.0000   0.0000   0.0000   0.0000
     0.0000   0.0000   0.0000   0.0000   0.0000   0.0000   0.0000   0.0000
     0.0000   0.0000   0.0000   0.0000   0.0000   0.0000   0.0000   0.0000
     0.0000   0.0000   0.0000   0.0000   0.0000   0.0000   0.0000   0.0000
     0.0000   0.0000   0.0000   0.0000

          k =-0.5000 0.2448 0.0000 (  9302 PWs)   bands (ev):

   -31.1940 -15.6871 -15.6721 -11.7798 -11.4757 -11.3754  -7.6486  -7.4859
    -7.4338  -7.3883  -7.0575  -6.7832  -6.5786  -1.3024  -1.2366  -1.1545
    -1.1484  -1.0583  -0.9750   3.3606   3.8187   4.7994   4.9245   4.9419
     4.9697   5.0562   5.2665   5.6642   5.7920   6.3230   6.3333   6.4876
     6.5470   6.6019   6.7993   7.3772   7.6006   7.7629   7.9133   7.9663
     8.0508   8.1386   8.4746   8.5707   8.5893   8.7055   8.7061   8.8152
     9.0340   9.1102   9.1264   9.2801  10.5407  10.6340  10.7321  13.1205
    13.9152  15.0712  15.9574  16.0995  16.1958  16.2572  16.6348  16.7304
    17.0079  17.3451  17.3925  17.4965  17.5932  17.8685  18.3236  19.1428
    19.5399  20.2518  20.2837  20.5099  21.8921  21.9729  22.0824  22.3643
    22.8176  22.9930  23.4949  23.6269  23.6635  24.1172  24.1669  24.2766
    24.9916  25.2250  25.4257  25.8614  26.4162  27.3009  27.6021  28.0825
    28.3582  28.3964  28.7337  28.9302

     occupation numbers 
     1.0000   1.0000   1.0000   1.0000   1.0000   1.0000   1.0000   1.0000
     1.0000   1.0000   1.0000   1.0000   1.0000   1.0000   1.0000   1.0000
     1.0000   1.0000   1.0000   1.0000   1.0000   1.0000   1.0000   1.0000
     1.0000   1.0000   1.0000   1.0000   1.0000   1.0000   1.0000   1.0000
     1.0000   1.0000   1.0000   1.0000   1.0000   1.0000   1.0000   1.0000
     1.0000   1.0000   1.0000   1.0000   1.0000   1.0000   1.0000   1.0000
     1.0000   1.0000   1.0000   1.0000   0.0000   0.0000   0.0000   0.0000
     0.0000   0.0000   0.0000   0.0000   0.0000   0.0000   0.0000   0.0000
     0.0000   0.0000   0.0000   0.0000   0.0000   0.0000   0.0000   0.0000
     0.0000   0.0000   0.0000   0.0000   0.0000   0.0000   0.0000   0.0000
     0.0000   0.0000   0.0000   0.0000   0.0000   0.0000   0.0000   0.0000
     0.0000   0.0000   0.0000   0.0000   0.0000   0.0000   0.0000   0.0000
     0.0000   0.0000   0.0000   0.0000

          k =-0.5000 0.2448 0.0813 (  9292 PWs)   bands (ev):

   -31.1940 -15.6874 -15.6718 -11.7798 -11.4757 -11.3754  -7.6627  -7.4578
    -7.4336  -7.3884  -7.0837  -6.7684  -6.5812  -1.2968  -1.2363  -1.1536
    -1.1496  -1.0585  -0.9815   3.3677   3.8092   4.8060   4.9311   4.9419
     4.9449   5.0929   5.2428   5.6836   5.7826   6.3147   6.3307   6.4747
     6.5409   6.5916   6.7876   7.4704   7.6173   7.7378   7.9235   7.9527
     8.1035   8.1253   8.4560   8.5352   8.6003   8.6429   8.7935   8.8074
     9.0375   9.1080   9.1228   9.1739  10.5563  10.6316  10.7769  13.1474
    13.9267  15.0272  15.9009  15.9458  16.2836  16.2874  16.5349  16.9438
    17.1104  17.2911  17.3813  17.5045  17.5701  17.8207  18.3810  19.1382
    19.4754  20.3003  20.4765  20.4925  21.8759  21.8951  22.1697  22.3372
    22.6887  22.7141  23.3703  23.4319  23.9208  24.0427  24.1443  24.2395
    24.9526  25.0630  25.8364  26.3776  26.4612  27.5248  27.6733  28.0581
    28.0637  28.4192  28.7901  28.8091

     occupation numbers 
     1.0000   1.0000   1.0000   1.0000   1.0000   1.0000   1.0000   1.0000
     1.0000   1.0000   1.0000   1.0000   1.0000   1.0000   1.0000   1.0000
     1.0000   1.0000   1.0000   1.0000   1.0000   1.0000   1.0000   1.0000
     1.0000   1.0000   1.0000   1.0000   1.0000   1.0000   1.0000   1.0000
     1.0000   1.0000   1.0000   1.0000   1.0000   1.0000   1.0000   1.0000
     1.0000   1.0000   1.0000   1.0000   1.0000   1.0000   1.0000   1.0000
     1.0000   1.0000   1.0000   1.0000   0.0000   0.0000   0.0000   0.0000
     0.0000   0.0000   0.0000   0.0000   0.0000   0.0000   0.0000   0.0000
     0.0000   0.0000   0.0000   0.0000   0.0000   0.0000   0.0000   0.0000
     0.0000   0.0000   0.0000   0.0000   0.0000   0.0000   0.0000   0.0000
     0.0000   0.0000   0.0000   0.0000   0.0000   0.0000   0.0000   0.0000
     0.0000   0.0000   0.0000   0.0000   0.0000   0.0000   0.0000   0.0000
     0.0000   0.0000   0.0000   0.0000

          k =-0.5000 0.2448-0.1626 (  9308 PWs)   bands (ev):

   -31.1940 -15.6877 -15.6715 -11.7798 -11.4757 -11.3754  -7.6742  -7.4335
    -7.4303  -7.3885  -7.1105  -6.7548  -6.5840  -1.2909  -1.2360  -1.1549
    -1.1485  -1.0587  -0.9883   3.3750   3.7994   4.8150   4.9019   4.9420
     4.9683   5.1179   5.2166   5.7030   5.7732   6.3047   6.3278   6.4615
     6.5351   6.5823   6.7812   7.6060   7.6334   7.6657   7.9350   7.9393
     8.1123   8.1765   8.4362   8.5205   8.5212   8.6776   8.7967   8.8568
     9.0410   9.0455   9.1056   9.1237  10.5698  10.6260  10.8220  13.1754
    13.9384  14.9756  15.8622  15.9130  16.2054  16.3690  16.4427  17.1865
    17.2105  17.3522  17.3522  17.3938  17.5253  17.7696  18.4371  19.1339
    19.4009  20.3216  20.4703  20.8680  21.5572  21.8989  22.1948  22.3335
    22.4875  22.6415  23.3462  23.3521  23.7172  24.1451  24.1722  24.1917
    24.9181  25.4773  25.8249  26.1704  26.8926  27.8237  28.0166  28.0328
    28.0583  28.3908  28.5577  28.7651

     occupation numbers 
     1.0000   1.0000   1.0000   1.0000   1.0000   1.0000   1.0000   1.0000
     1.0000   1.0000   1.0000   1.0000   1.0000   1.0000   1.0000   1.0000
     1.0000   1.0000   1.0000   1.0000   1.0000   1.0000   1.0000   1.0000
     1.0000   1.0000   1.0000   1.0000   1.0000   1.0000   1.0000   1.0000
     1.0000   1.0000   1.0000   1.0000   1.0000   1.0000   1.0000   1.0000
     1.0000   1.0000   1.0000   1.0000   1.0000   1.0000   1.0000   1.0000
     1.0000   1.0000   1.0000   1.0000   0.0000   0.0000   0.0000   0.0000
     0.0000   0.0000   0.0000   0.0000   0.0000   0.0000   0.0000   0.0000
     0.0000   0.0000   0.0000   0.0000   0.0000   0.0000   0.0000   0.0000
     0.0000   0.0000   0.0000   0.0000   0.0000   0.0000   0.0000   0.0000
     0.0000   0.0000   0.0000   0.0000   0.0000   0.0000   0.0000   0.0000
     0.0000   0.0000   0.0000   0.0000   0.0000   0.0000   0.0000   0.0000
     0.0000   0.0000   0.0000   0.0000

          k =-0.5000 0.2448-0.0813 (  9292 PWs)   bands (ev):

   -31.1940 -15.6874 -15.6718 -11.7798 -11.4757 -11.3754  -7.6627  -7.4578
    -7.4336  -7.3884  -7.0837  -6.7684  -6.5812  -1.2968  -1.2363  -1.1536
    -1.1496  -1.0585  -0.9815   3.3677   3.8092   4.8060   4.9311   4.9419
     4.9449   5.0929   5.2428   5.6836   5.7826   6.3147   6.3307   6.4747
     6.5409   6.5916   6.7876   7.4704   7.6173   7.7378   7.9235   7.9527
     8.1035   8.1253   8.4560   8.5352   8.6003   8.6429   8.7935   8.8074
     9.0375   9.1080   9.1228   9.1739  10.5563  10.6316  10.7769  13.1474
    13.9267  15.0272  15.9009  15.9458  16.2836  16.2874  16.5349  16.9438
    17.1104  17.2911  17.3813  17.5045  17.5701  17.8207  18.3810  19.1382
    19.4754  20.3003  20.4765  20.4925  21.8759  21.8951  22.1697  22.3372
    22.6887  22.7141  23.3703  23.4319  23.9208  24.0427  24.1443  24.2395
    24.9526  25.0630  25.8364  26.3776  26.4612  27.5248  27.6733  28.0581
    28.0637  28.4192  28.7901  28.8091

     occupation numbers 
     1.0000   1.0000   1.0000   1.0000   1.0000   1.0000   1.0000   1.0000
     1.0000   1.0000   1.0000   1.0000   1.0000   1.0000   1.0000   1.0000
     1.0000   1.0000   1.0000   1.0000   1.0000   1.0000   1.0000   1.0000
     1.0000   1.0000   1.0000   1.0000   1.0000   1.0000   1.0000   1.0000
     1.0000   1.0000   1.0000   1.0000   1.0000   1.0000   1.0000   1.0000
     1.0000   1.0000   1.0000   1.0000   1.0000   1.0000   1.0000   1.0000
     1.0000   1.0000   1.0000   1.0000   0.0000   0.0000   0.0000   0.0000
     0.0000   0.0000   0.0000   0.0000   0.0000   0.0000   0.0000   0.0000
     0.0000   0.0000   0.0000   0.0000   0.0000   0.0000   0.0000   0.0000
     0.0000   0.0000   0.0000   0.0000   0.0000   0.0000   0.0000   0.0000
     0.0000   0.0000   0.0000   0.0000   0.0000   0.0000   0.0000   0.0000
     0.0000   0.0000   0.0000   0.0000   0.0000   0.0000   0.0000   0.0000
     0.0000   0.0000   0.0000   0.0000

          k =-0.5000 0.3672 0.0000 (  9328 PWs)   bands (ev):

   -31.1901 -15.6582 -15.6432 -11.7649 -11.6459 -11.3024  -7.5645  -7.5341
    -7.2302  -7.2061  -6.9873  -6.7087  -6.6979  -1.5224  -1.5052  -1.4685
    -1.2743  -1.2662  -0.9683   2.9580   3.5462   4.3407   4.5390   4.6539
     4.7201   5.0384   5.2042   5.7741   5.8711   6.1842   6.3398   6.3534
     6.4936   6.5484   6.6420   7.4092   7.8465   8.0431   8.3001   8.3621
     8.4112   8.5358   8.6183   8.7058   8.7368   8.9193   8.9402   8.9536
     8.9784   9.1497   9.4289   9.4683  11.0113  11.3013  11.3944  12.5722
    13.6321  15.1949  15.5083  15.8411  16.0206  16.2800  16.4968  16.7318
    16.7717  17.4516  17.8182  17.9001  18.0189  18.5332  18.9687  19.5014
    19.7865  20.0841  20.2379  20.9029  21.5722  21.8353  22.1754  22.2392
    22.9618  23.0432  23.1913  23.3499  23.3790  23.9752  24.0282  24.5621
    24.7070  24.9047  25.2330  25.3098  25.6612  26.2404  26.9843  27.6609
    28.7305  28.7610  28.9911  29.4286

     occupation numbers 
     1.0000   1.0000   1.0000   1.0000   1.0000   1.0000   1.0000   1.0000
     1.0000   1.0000   1.0000   1.0000   1.0000   1.0000   1.0000   1.0000
     1.0000   1.0000   1.0000   1.0000   1.0000   1.0000   1.0000   1.0000
     1.0000   1.0000   1.0000   1.0000   1.0000   1.0000   1.0000   1.0000
     1.0000   1.0000   1.0000   1.0000   1.0000   1.0000   1.0000   1.0000
     1.0000   1.0000   1.0000   1.0000   1.0000   1.0000   1.0000   1.0000
     1.0000   1.0000   0.9991   0.9966   0.0000   0.0000   0.0000   0.0000
     0.0000   0.0000   0.0000   0.0000   0.0000   0.0000   0.0000   0.0000
     0.0000   0.0000   0.0000   0.0000   0.0000   0.0000   0.0000   0.0000
     0.0000   0.0000   0.0000   0.0000   0.0000   0.0000   0.0000   0.0000
     0.0000   0.0000   0.0000   0.0000   0.0000   0.0000   0.0000   0.0000
     0.0000   0.0000   0.0000   0.0000   0.0000   0.0000   0.0000   0.0000
     0.0000   0.0000   0.0000   0.0000

          k =-0.5000 0.3672 0.0813 (  9316 PWs)   bands (ev):

   -31.1901 -15.6584 -15.6430 -11.7649 -11.6459 -11.3025  -7.5674  -7.5341
    -7.2180  -7.2061  -7.0001  -6.7101  -6.6930  -1.5219  -1.5032  -1.4701
    -1.2747  -1.2576  -0.9789   2.9668   3.5322   4.3414   4.5662   4.6551
     4.7169   5.0440   5.1710   5.7586   5.8839   6.2037   6.3026   6.3845
     6.4711   6.5311   6.6413   7.5428   7.8457   8.0591   8.3085   8.3358
     8.4240   8.5060   8.6048   8.6912   8.7326   8.7750   8.9765   8.9782
     8.9939   9.1095   9.4270   9.4630  11.1097  11.3023  11.3955  12.5930
    13.5963  15.1573  15.5782  15.6883  16.1587  16.2556  16.3692  16.5446
    17.1711  17.3658  17.5714  17.9059  18.3126  18.6519  18.9041  19.5576
    19.7854  20.0933  20.2163  20.7569  21.6957  21.8397  22.1701  22.3544
    22.6489  22.8236  23.0798  23.3266  23.5480  23.8712  24.1114  24.6534
    24.6928  24.8769  25.0650  25.2775  25.6363  26.6949  27.3958  27.8941
    28.5606  28.6294  28.9180  29.4831

     occupation numbers 
     1.0000   1.0000   1.0000   1.0000   1.0000   1.0000   1.0000   1.0000
     1.0000   1.0000   1.0000   1.0000   1.0000   1.0000   1.0000   1.0000
     1.0000   1.0000   1.0000   1.0000   1.0000   1.0000   1.0000   1.0000
     1.0000   1.0000   1.0000   1.0000   1.0000   1.0000   1.0000   1.0000
     1.0000   1.0000   1.0000   1.0000   1.0000   1.0000   1.0000   1.0000
     1.0000   1.0000   1.0000   1.0000   1.0000   1.0000   1.0000   1.0000
     1.0000   1.0000   0.9991   0.9971   0.0000   0.0000   0.0000   0.0000
     0.0000   0.0000   0.0000   0.0000   0.0000   0.0000   0.0000   0.0000
     0.0000   0.0000   0.0000   0.0000   0.0000   0.0000   0.0000   0.0000
     0.0000   0.0000   0.0000   0.0000   0.0000   0.0000   0.0000   0.0000
     0.0000   0.0000   0.0000   0.0000   0.0000   0.0000   0.0000   0.0000
     0.0000   0.0000   0.0000   0.0000   0.0000   0.0000   0.0000   0.0000
     0.0000   0.0000   0.0000   0.0000

          k =-0.5000 0.3672-0.1626 (  9316 PWs)   bands (ev):

   -31.1901 -15.6587 -15.6427 -11.7649 -11.6459 -11.3025  -7.5703  -7.5342
    -7.2060  -7.2045  -7.0141  -6.7108  -6.6889  -1.5214  -1.5010  -1.4720
    -1.2751  -1.2483  -0.9902   2.9760   3.5178   4.3421   4.5963   4.6563
     4.7137   5.0495   5.1353   5.7442   5.8966   6.2220   6.2821   6.3985
     6.4462   6.5215   6.6405   7.7107   7.8419   8.0767   8.2519   8.3202
     8.4710   8.5124   8.5890   8.5931   8.6840   8.7289   8.9901   8.9923
     9.0114   9.0838   9.4250   9.4592  11.2012  11.3033  11.3985  12.6143
    13.5587  15.1250  15.6109  15.6540  16.0540  16.1678  16.4817  16.6930
    17.0487  17.2885  17.4855  18.1863  18.4151  18.7365  18.7854  19.5975
    19.7850  20.1089  20.1880  20.6971  21.8759  21.9049  22.1197  22.1265
    22.4423  22.6455  23.0490  23.4363  23.7690  23.9721  24.1219  24.1449
    24.6207  24.9982  25.1023  25.3186  25.6758  26.9269  27.9067  28.2560
    28.4661  28.6092  28.7340  29.2537

     occupation numbers 
     1.0000   1.0000   1.0000   1.0000   1.0000   1.0000   1.0000   1.0000
     1.0000   1.0000   1.0000   1.0000   1.0000   1.0000   1.0000   1.0000
     1.0000   1.0000   1.0000   1.0000   1.0000   1.0000   1.0000   1.0000
     1.0000   1.0000   1.0000   1.0000   1.0000   1.0000   1.0000   1.0000
     1.0000   1.0000   1.0000   1.0000   1.0000   1.0000   1.0000   1.0000
     1.0000   1.0000   1.0000   1.0000   1.0000   1.0000   1.0000   1.0000
     1.0000   1.0000   0.9992   0.9974   0.0000   0.0000   0.0000   0.0000
     0.0000   0.0000   0.0000   0.0000   0.0000   0.0000   0.0000   0.0000
     0.0000   0.0000   0.0000   0.0000   0.0000   0.0000   0.0000   0.0000
     0.0000   0.0000   0.0000   0.0000   0.0000   0.0000   0.0000   0.0000
     0.0000   0.0000   0.0000   0.0000   0.0000   0.0000   0.0000   0.0000
     0.0000   0.0000   0.0000   0.0000   0.0000   0.0000   0.0000   0.0000
     0.0000   0.0000   0.0000   0.0000

          k =-0.5000 0.3672-0.0813 (  9316 PWs)   bands (ev):

   -31.1901 -15.6584 -15.6430 -11.7649 -11.6459 -11.3025  -7.5674  -7.5341
    -7.2180  -7.2061  -7.0001  -6.7101  -6.6930  -1.5219  -1.5032  -1.4701
    -1.2747  -1.2576  -0.9789   2.9668   3.5322   4.3414   4.5662   4.6551
     4.7169   5.0440   5.1710   5.7586   5.8839   6.2037   6.3026   6.3845
     6.4711   6.5311   6.6413   7.5428   7.8457   8.0591   8.3085   8.3358
     8.4240   8.5060   8.6048   8.6912   8.7326   8.7750   8.9765   8.9782
     8.9939   9.1095   9.4270   9.4630  11.1097  11.3023  11.3955  12.5930
    13.5963  15.1573  15.5782  15.6883  16.1587  16.2556  16.3692  16.5446
    17.1711  17.3658  17.5714  17.9059  18.3126  18.6519  18.9041  19.5576
    19.7854  20.0933  20.2163  20.7569  21.6957  21.8397  22.1701  22.3544
    22.6489  22.8236  23.0798  23.3266  23.5480  23.8712  24.1114  24.6534
    24.6928  24.8769  25.0650  25.2775  25.6363  26.6949  27.3958  27.8941
    28.5606  28.6294  28.9180  29.4831

     occupation numbers 
     1.0000   1.0000   1.0000   1.0000   1.0000   1.0000   1.0000   1.0000
     1.0000   1.0000   1.0000   1.0000   1.0000   1.0000   1.0000   1.0000
     1.0000   1.0000   1.0000   1.0000   1.0000   1.0000   1.0000   1.0000
     1.0000   1.0000   1.0000   1.0000   1.0000   1.0000   1.0000   1.0000
     1.0000   1.0000   1.0000   1.0000   1.0000   1.0000   1.0000   1.0000
     1.0000   1.0000   1.0000   1.0000   1.0000   1.0000   1.0000   1.0000
     1.0000   1.0000   0.9991   0.9971   0.0000   0.0000   0.0000   0.0000
     0.0000   0.0000   0.0000   0.0000   0.0000   0.0000   0.0000   0.0000
     0.0000   0.0000   0.0000   0.0000   0.0000   0.0000   0.0000   0.0000
     0.0000   0.0000   0.0000   0.0000   0.0000   0.0000   0.0000   0.0000
     0.0000   0.0000   0.0000   0.0000   0.0000   0.0000   0.0000   0.0000
     0.0000   0.0000   0.0000   0.0000   0.0000   0.0000   0.0000   0.0000
     0.0000   0.0000   0.0000   0.0000

          k =-0.5000-0.4896 0.0000 (  9320 PWs)   bands (ev):

   -31.1884 -15.6461 -15.6312 -11.7588 -11.7118 -11.2708  -7.5956  -7.5286
    -7.1161  -7.0234  -6.9510  -6.8700  -6.6608  -1.6391  -1.6256  -1.5944
    -1.3588  -1.2679  -0.9626   2.7915   3.4114   4.1156   4.4058   4.6132
     4.6636   5.0372   5.1830   5.7771   5.9596   6.1224   6.2544   6.3246
     6.4527   6.4842   6.6828   7.4157   7.8749   8.2988   8.3769   8.4737
     8.4914   8.7324   8.7691   8.7735   8.8141   8.8464   8.9284   9.0552
     9.1034   9.1545   9.5607   9.6505  11.0863  11.5645  11.6433  12.3668
    13.5667  15.2089  15.2212  15.8061  15.9415  15.9624  16.3926  16.8945
    17.2405  17.4711  17.7270  17.7900  17.8402  19.7790  19.8920  20.0210
    20.0538  20.1188  20.1731  20.3583  21.3426  21.5998  22.0187  22.5706
    22.6621  22.8807  23.0520  23.1396  23.1879  23.4766  23.6179  24.1413
    24.3696  24.9138  24.9172  24.9269  25.3559  27.1237  28.0516  28.0940
    28.3900  28.9684  29.2683  29.4344

     occupation numbers 
     1.0000   1.0000   1.0000   1.0000   1.0000   1.0000   1.0000   1.0000
     1.0000   1.0000   1.0000   1.0000   1.0000   1.0000   1.0000   1.0000
     1.0000   1.0000   1.0000   1.0000   1.0000   1.0000   1.0000   1.0000
     1.0000   1.0000   1.0000   1.0000   1.0000   1.0000   1.0000   1.0000
     1.0000   1.0000   1.0000   1.0000   1.0000   1.0000   1.0000   1.0000
     1.0000   1.0000   1.0000   1.0000   1.0000   1.0000   1.0000   1.0000
     1.0000   1.0000   0.9594   0.7912   0.0000   0.0000   0.0000   0.0000
     0.0000   0.0000   0.0000   0.0000   0.0000   0.0000   0.0000   0.0000
     0.0000   0.0000   0.0000   0.0000   0.0000   0.0000   0.0000   0.0000
     0.0000   0.0000   0.0000   0.0000   0.0000   0.0000   0.0000   0.0000
     0.0000   0.0000   0.0000   0.0000   0.0000   0.0000   0.0000   0.0000
     0.0000   0.0000   0.0000   0.0000   0.0000   0.0000   0.0000   0.0000
     0.0000   0.0000   0.0000   0.0000

          k =-0.5000-0.4896 0.0813 (  9324 PWs)   bands (ev):

   -31.1884 -15.6463 -15.6309 -11.7588 -11.7118 -11.2708  -7.5957  -7.5294
    -7.1161  -7.0144  -6.9593  -6.8699  -6.6609  -1.6385  -1.6254  -1.5946
    -1.3593  -1.2560  -0.9765   2.8011   3.3954   4.1173   4.4355   4.6137
     4.6625   5.0411   5.1469   5.7545   5.9612   6.1585   6.2617   6.3238
     6.4413   6.4454   6.6821   7.5619   7.8914   8.3001   8.4084   8.4769
     8.5121   8.6166   8.6681   8.7071   8.7555   8.9142   8.9262   9.0669
     9.1204   9.1441   9.5598   9.6495  11.2149  11.5645  11.6434  12.3744
    13.4933  15.2460  15.3094  15.6050  15.9847  16.3090  16.3645  16.4620
    16.9217  17.4701  17.5918  18.2133  18.2385  19.7758  19.9196  19.9999
    20.0697  20.1155  20.3416  20.4049  20.6597  22.0048  22.1843  22.5333
    22.5753  22.6674  22.7973  23.1363  23.1666  23.3805  23.6748  24.2122
    24.3403  24.7075  24.8414  24.9009  25.9978  27.2365  28.2235  28.2989
    28.3031  28.8042  29.3227  29.7004

     occupation numbers 
     1.0000   1.0000   1.0000   1.0000   1.0000   1.0000   1.0000   1.0000
     1.0000   1.0000   1.0000   1.0000   1.0000   1.0000   1.0000   1.0000
     1.0000   1.0000   1.0000   1.0000   1.0000   1.0000   1.0000   1.0000
     1.0000   1.0000   1.0000   1.0000   1.0000   1.0000   1.0000   1.0000
     1.0000   1.0000   1.0000   1.0000   1.0000   1.0000   1.0000   1.0000
     1.0000   1.0000   1.0000   1.0000   1.0000   1.0000   1.0000   1.0000
     1.0000   1.0000   0.9602   0.7941   0.0000   0.0000   0.0000   0.0000
     0.0000   0.0000   0.0000   0.0000   0.0000   0.0000   0.0000   0.0000
     0.0000   0.0000   0.0000   0.0000   0.0000   0.0000   0.0000   0.0000
     0.0000   0.0000   0.0000   0.0000   0.0000   0.0000   0.0000   0.0000
     0.0000   0.0000   0.0000   0.0000   0.0000   0.0000   0.0000   0.0000
     0.0000   0.0000   0.0000   0.0000   0.0000   0.0000   0.0000   0.0000
     0.0000   0.0000   0.0000   0.0000

          k =-0.5000-0.4896-0.1626 (  9328 PWs)   bands (ev):

   -31.1884 -15.6466 -15.6307 -11.7588 -11.7118 -11.2708  -7.5957  -7.5301
    -7.1161  -7.0009  -6.9721  -6.8699  -6.6609  -1.6378  -1.6252  -1.5948
    -1.3598  -1.2428  -0.9916   2.8111   3.3791   4.1189   4.4683   4.6143
     4.6615   5.0449   5.1081   5.7349   5.9629   6.1941   6.2688   6.3229
     6.4121   6.4274   6.6814   7.7204   7.9762   8.3014   8.3410   8.4631
     8.4805   8.5399   8.5770   8.6751   8.7382   8.9246   8.9490   9.0814
     9.1306   9.1357   9.5589   9.6485  11.3407  11.5645  11.6435  12.3821
    13.4156  15.2732  15.4680  15.5162  16.0342  16.1074  16.3295  16.6408
    16.7298  17.2609  17.4697  18.5270  18.7000  19.7734  19.9495  19.9745
    20.0865  20.1103  20.1787  20.3233  20.6623  21.9856  22.1922  22.4500
    22.4928  22.6682  22.6728  22.9722  23.2054  23.5440  23.5865  24.3870
    24.4028  24.5715  24.5777  24.8847  26.5303  27.3299  28.0402  28.6178
    28.7780  28.8991  28.9183  29.2326

     occupation numbers 
     1.0000   1.0000   1.0000   1.0000   1.0000   1.0000   1.0000   1.0000
     1.0000   1.0000   1.0000   1.0000   1.0000   1.0000   1.0000   1.0000
     1.0000   1.0000   1.0000   1.0000   1.0000   1.0000   1.0000   1.0000
     1.0000   1.0000   1.0000   1.0000   1.0000   1.0000   1.0000   1.0000
     1.0000   1.0000   1.0000   1.0000   1.0000   1.0000   1.0000   1.0000
     1.0000   1.0000   1.0000   1.0000   1.0000   1.0000   1.0000   1.0000
     1.0000   1.0000   0.9610   0.7970   0.0000   0.0000   0.0000   0.0000
     0.0000   0.0000   0.0000   0.0000   0.0000   0.0000   0.0000   0.0000
     0.0000   0.0000   0.0000   0.0000   0.0000   0.0000   0.0000   0.0000
     0.0000   0.0000   0.0000   0.0000   0.0000   0.0000   0.0000   0.0000
     0.0000   0.0000   0.0000   0.0000   0.0000   0.0000   0.0000   0.0000
     0.0000   0.0000   0.0000   0.0000   0.0000   0.0000   0.0000   0.0000
     0.0000   0.0000   0.0000   0.0000

          k =-0.5000-0.4896-0.0813 (  9324 PWs)   bands (ev):

   -31.1884 -15.6463 -15.6309 -11.7588 -11.7118 -11.2708  -7.5957  -7.5294
    -7.1161  -7.0144  -6.9593  -6.8699  -6.6609  -1.6385  -1.6254  -1.5946
    -1.3593  -1.2560  -0.9765   2.8011   3.3954   4.1173   4.4355   4.6137
     4.6625   5.0411   5.1469   5.7545   5.9612   6.1585   6.2617   6.3238
     6.4413   6.4454   6.6821   7.5619   7.8914   8.3001   8.4084   8.4769
     8.5121   8.6166   8.6681   8.7071   8.7555   8.9142   8.9262   9.0669
     9.1204   9.1441   9.5598   9.6495  11.2149  11.5645  11.6434  12.3744
    13.4933  15.2460  15.3094  15.6050  15.9847  16.3090  16.3645  16.4620
    16.9217  17.4701  17.5918  18.2133  18.2385  19.7758  19.9196  19.9999
    20.0697  20.1155  20.3416  20.4049  20.6597  22.0048  22.1843  22.5333
    22.5753  22.6674  22.7973  23.1363  23.1666  23.3805  23.6748  24.2122
    24.3403  24.7075  24.8414  24.9009  25.9978  27.2365  28.2235  28.2989
    28.3031  28.8042  29.3227  29.7004

     occupation numbers 
     1.0000   1.0000   1.0000   1.0000   1.0000   1.0000   1.0000   1.0000
     1.0000   1.0000   1.0000   1.0000   1.0000   1.0000   1.0000   1.0000
     1.0000   1.0000   1.0000   1.0000   1.0000   1.0000   1.0000   1.0000
     1.0000   1.0000   1.0000   1.0000   1.0000   1.0000   1.0000   1.0000
     1.0000   1.0000   1.0000   1.0000   1.0000   1.0000   1.0000   1.0000
     1.0000   1.0000   1.0000   1.0000   1.0000   1.0000   1.0000   1.0000
     1.0000   1.0000   0.9602   0.7941   0.0000   0.0000   0.0000   0.0000
     0.0000   0.0000   0.0000   0.0000   0.0000   0.0000   0.0000   0.0000
     0.0000   0.0000   0.0000   0.0000   0.0000   0.0000   0.0000   0.0000
     0.0000   0.0000   0.0000   0.0000   0.0000   0.0000   0.0000   0.0000
     0.0000   0.0000   0.0000   0.0000   0.0000   0.0000   0.0000   0.0000
     0.0000   0.0000   0.0000   0.0000   0.0000   0.0000   0.0000   0.0000
     0.0000   0.0000   0.0000   0.0000

          k =-0.5000-0.3672 0.0000 (  9328 PWs)   bands (ev):

   -31.1901 -15.6582 -15.6432 -11.7649 -11.6459 -11.3024  -7.5645  -7.5341
    -7.2302  -7.2061  -6.9873  -6.7087  -6.6979  -1.5224  -1.5052  -1.4685
    -1.2743  -1.2662  -0.9683   2.9580   3.5462   4.3407   4.5390   4.6539
     4.7201   5.0384   5.2042   5.7741   5.8711   6.1842   6.3398   6.3534
     6.4936   6.5484   6.6420   7.4092   7.8465   8.0431   8.3001   8.3621
     8.4112   8.5358   8.6183   8.7058   8.7368   8.9193   8.9402   8.9536
     8.9784   9.1497   9.4289   9.4683  11.0113  11.3013  11.3944  12.5722
    13.6321  15.1949  15.5083  15.8411  16.0206  16.2800  16.4968  16.7318
    16.7717  17.4516  17.8182  17.9001  18.0189  18.5332  18.9687  19.5014
    19.7865  20.0841  20.2379  20.9029  21.5722  21.8353  22.1754  22.2392
    22.9618  23.0432  23.1913  23.3499  23.3790  23.9752  24.0282  24.5621
    24.7070  24.9047  25.2330  25.3098  25.6612  26.2404  26.9843  27.6609
    28.7305  28.7610  28.9911  29.4286

     occupation numbers 
     1.0000   1.0000   1.0000   1.0000   1.0000   1.0000   1.0000   1.0000
     1.0000   1.0000   1.0000   1.0000   1.0000   1.0000   1.0000   1.0000
     1.0000   1.0000   1.0000   1.0000   1.0000   1.0000   1.0000   1.0000
     1.0000   1.0000   1.0000   1.0000   1.0000   1.0000   1.0000   1.0000
     1.0000   1.0000   1.0000   1.0000   1.0000   1.0000   1.0000   1.0000
     1.0000   1.0000   1.0000   1.0000   1.0000   1.0000   1.0000   1.0000
     1.0000   1.0000   0.9991   0.9966   0.0000   0.0000   0.0000   0.0000
     0.0000   0.0000   0.0000   0.0000   0.0000   0.0000   0.0000   0.0000
     0.0000   0.0000   0.0000   0.0000   0.0000   0.0000   0.0000   0.0000
     0.0000   0.0000   0.0000   0.0000   0.0000   0.0000   0.0000   0.0000
     0.0000   0.0000   0.0000   0.0000   0.0000   0.0000   0.0000   0.0000
     0.0000   0.0000   0.0000   0.0000   0.0000   0.0000   0.0000   0.0000
     0.0000   0.0000   0.0000   0.0000

          k =-0.5000-0.3672 0.0813 (  9316 PWs)   bands (ev):

   -31.1901 -15.6584 -15.6430 -11.7649 -11.6459 -11.3025  -7.5674  -7.5341
    -7.2180  -7.2061  -7.0001  -6.7101  -6.6930  -1.5219  -1.5032  -1.4701
    -1.2747  -1.2576  -0.9789   2.9668   3.5322   4.3414   4.5662   4.6551
     4.7169   5.0440   5.1710   5.7586   5.8839   6.2037   6.3026   6.3845
     6.4711   6.5311   6.6413   7.5428   7.8457   8.0591   8.3085   8.3358
     8.4240   8.5060   8.6048   8.6912   8.7326   8.7750   8.9765   8.9782
     8.9939   9.1095   9.4270   9.4630  11.1097  11.3023  11.3955  12.5930
    13.5963  15.1573  15.5782  15.6883  16.1587  16.2556  16.3692  16.5446
    17.1711  17.3658  17.5714  17.9059  18.3126  18.6519  18.9041  19.5576
    19.7854  20.0933  20.2163  20.7569  21.6957  21.8397  22.1701  22.3544
    22.6489  22.8236  23.0798  23.3266  23.5480  23.8712  24.1114  24.6534
    24.6928  24.8769  25.0650  25.2775  25.6363  26.6949  27.3958  27.8941
    28.5606  28.6294  28.9180  29.4831

     occupation numbers 
     1.0000   1.0000   1.0000   1.0000   1.0000   1.0000   1.0000   1.0000
     1.0000   1.0000   1.0000   1.0000   1.0000   1.0000   1.0000   1.0000
     1.0000   1.0000   1.0000   1.0000   1.0000   1.0000   1.0000   1.0000
     1.0000   1.0000   1.0000   1.0000   1.0000   1.0000   1.0000   1.0000
     1.0000   1.0000   1.0000   1.0000   1.0000   1.0000   1.0000   1.0000
     1.0000   1.0000   1.0000   1.0000   1.0000   1.0000   1.0000   1.0000
     1.0000   1.0000   0.9991   0.9971   0.0000   0.0000   0.0000   0.0000
     0.0000   0.0000   0.0000   0.0000   0.0000   0.0000   0.0000   0.0000
     0.0000   0.0000   0.0000   0.0000   0.0000   0.0000   0.0000   0.0000
     0.0000   0.0000   0.0000   0.0000   0.0000   0.0000   0.0000   0.0000
     0.0000   0.0000   0.0000   0.0000   0.0000   0.0000   0.0000   0.0000
     0.0000   0.0000   0.0000   0.0000   0.0000   0.0000   0.0000   0.0000
     0.0000   0.0000   0.0000   0.0000

          k =-0.5000-0.3672-0.1626 (  9316 PWs)   bands (ev):

   -31.1901 -15.6587 -15.6427 -11.7649 -11.6459 -11.3025  -7.5703  -7.5342
    -7.2060  -7.2045  -7.0141  -6.7108  -6.6889  -1.5214  -1.5010  -1.4720
    -1.2751  -1.2483  -0.9902   2.9760   3.5178   4.3421   4.5963   4.6563
     4.7137   5.0495   5.1353   5.7442   5.8966   6.2220   6.2821   6.3985
     6.4462   6.5215   6.6405   7.7107   7.8419   8.0767   8.2519   8.3202
     8.4710   8.5124   8.5890   8.5931   8.6840   8.7289   8.9901   8.9923
     9.0114   9.0838   9.4250   9.4592  11.2012  11.3033  11.3985  12.6143
    13.5587  15.1250  15.6109  15.6540  16.0540  16.1678  16.4817  16.6930
    17.0487  17.2885  17.4855  18.1863  18.4151  18.7365  18.7854  19.5975
    19.7850  20.1089  20.1880  20.6971  21.8759  21.9049  22.1197  22.1265
    22.4423  22.6455  23.0490  23.4363  23.7690  23.9721  24.1219  24.1449
    24.6207  24.9982  25.1023  25.3186  25.6758  26.9269  27.9067  28.2560
    28.4661  28.6092  28.7340  29.2537

     occupation numbers 
     1.0000   1.0000   1.0000   1.0000   1.0000   1.0000   1.0000   1.0000
     1.0000   1.0000   1.0000   1.0000   1.0000   1.0000   1.0000   1.0000
     1.0000   1.0000   1.0000   1.0000   1.0000   1.0000   1.0000   1.0000
     1.0000   1.0000   1.0000   1.0000   1.0000   1.0000   1.0000   1.0000
     1.0000   1.0000   1.0000   1.0000   1.0000   1.0000   1.0000   1.0000
     1.0000   1.0000   1.0000   1.0000   1.0000   1.0000   1.0000   1.0000
     1.0000   1.0000   0.9992   0.9974   0.0000   0.0000   0.0000   0.0000
     0.0000   0.0000   0.0000   0.0000   0.0000   0.0000   0.0000   0.0000
     0.0000   0.0000   0.0000   0.0000   0.0000   0.0000   0.0000   0.0000
     0.0000   0.0000   0.0000   0.0000   0.0000   0.0000   0.0000   0.0000
     0.0000   0.0000   0.0000   0.0000   0.0000   0.0000   0.0000   0.0000
     0.0000   0.0000   0.0000   0.0000   0.0000   0.0000   0.0000   0.0000
     0.0000   0.0000   0.0000   0.0000

          k =-0.5000-0.3672-0.0813 (  9316 PWs)   bands (ev):

   -31.1901 -15.6584 -15.6430 -11.7649 -11.6459 -11.3025  -7.5674  -7.5341
    -7.2180  -7.2061  -7.0001  -6.7101  -6.6930  -1.5219  -1.5032  -1.4701
    -1.2747  -1.2576  -0.9789   2.9668   3.5322   4.3414   4.5662   4.6551
     4.7169   5.0440   5.1710   5.7586   5.8839   6.2037   6.3026   6.3845
     6.4711   6.5311   6.6413   7.5428   7.8457   8.0591   8.3085   8.3358
     8.4240   8.5060   8.6048   8.6912   8.7326   8.7750   8.9765   8.9782
     8.9939   9.1095   9.4270   9.4630  11.1097  11.3023  11.3955  12.5930
    13.5963  15.1573  15.5782  15.6883  16.1587  16.2556  16.3692  16.5446
    17.1711  17.3658  17.5714  17.9059  18.3126  18.6519  18.9041  19.5576
    19.7854  20.0933  20.2163  20.7569  21.6957  21.8397  22.1701  22.3544
    22.6489  22.8236  23.0798  23.3266  23.5480  23.8712  24.1114  24.6534
    24.6928  24.8769  25.0650  25.2775  25.6363  26.6949  27.3958  27.8941
    28.5606  28.6294  28.9180  29.4831

     occupation numbers 
     1.0000   1.0000   1.0000   1.0000   1.0000   1.0000   1.0000   1.0000
     1.0000   1.0000   1.0000   1.0000   1.0000   1.0000   1.0000   1.0000
     1.0000   1.0000   1.0000   1.0000   1.0000   1.0000   1.0000   1.0000
     1.0000   1.0000   1.0000   1.0000   1.0000   1.0000   1.0000   1.0000
     1.0000   1.0000   1.0000   1.0000   1.0000   1.0000   1.0000   1.0000
     1.0000   1.0000   1.0000   1.0000   1.0000   1.0000   1.0000   1.0000
     1.0000   1.0000   0.9991   0.9971   0.0000   0.0000   0.0000   0.0000
     0.0000   0.0000   0.0000   0.0000   0.0000   0.0000   0.0000   0.0000
     0.0000   0.0000   0.0000   0.0000   0.0000   0.0000   0.0000   0.0000
     0.0000   0.0000   0.0000   0.0000   0.0000   0.0000   0.0000   0.0000
     0.0000   0.0000   0.0000   0.0000   0.0000   0.0000   0.0000   0.0000
     0.0000   0.0000   0.0000   0.0000   0.0000   0.0000   0.0000   0.0000
     0.0000   0.0000   0.0000   0.0000

          k =-0.5000-0.2448 0.0000 (  9302 PWs)   bands (ev):

   -31.1940 -15.6871 -15.6721 -11.7798 -11.4757 -11.3754  -7.6486  -7.4859
    -7.4338  -7.3883  -7.0575  -6.7832  -6.5786  -1.3024  -1.2366  -1.1545
    -1.1484  -1.0583  -0.9750   3.3606   3.8187   4.7994   4.9245   4.9419
     4.9697   5.0562   5.2665   5.6642   5.7920   6.3230   6.3333   6.4876
     6.5470   6.6019   6.7993   7.3772   7.6006   7.7629   7.9133   7.9663
     8.0508   8.1386   8.4746   8.5707   8.5893   8.7055   8.7061   8.8152
     9.0340   9.1102   9.1264   9.2801  10.5407  10.6340  10.7321  13.1205
    13.9152  15.0712  15.9574  16.0995  16.1958  16.2572  16.6348  16.7304
    17.0079  17.3451  17.3925  17.4965  17.5932  17.8685  18.3236  19.1428
    19.5399  20.2518  20.2837  20.5099  21.8921  21.9729  22.0824  22.3643
    22.8176  22.9930  23.4949  23.6269  23.6635  24.1172  24.1669  24.2766
    24.9916  25.2250  25.4257  25.8614  26.4162  27.3009  27.6021  28.0825
    28.3582  28.3964  28.7337  28.9302

     occupation numbers 
     1.0000   1.0000   1.0000   1.0000   1.0000   1.0000   1.0000   1.0000
     1.0000   1.0000   1.0000   1.0000   1.0000   1.0000   1.0000   1.0000
     1.0000   1.0000   1.0000   1.0000   1.0000   1.0000   1.0000   1.0000
     1.0000   1.0000   1.0000   1.0000   1.0000   1.0000   1.0000   1.0000
     1.0000   1.0000   1.0000   1.0000   1.0000   1.0000   1.0000   1.0000
     1.0000   1.0000   1.0000   1.0000   1.0000   1.0000   1.0000   1.0000
     1.0000   1.0000   1.0000   1.0000   0.0000   0.0000   0.0000   0.0000
     0.0000   0.0000   0.0000   0.0000   0.0000   0.0000   0.0000   0.0000
     0.0000   0.0000   0.0000   0.0000   0.0000   0.0000   0.0000   0.0000
     0.0000   0.0000   0.0000   0.0000   0.0000   0.0000   0.0000   0.0000
     0.0000   0.0000   0.0000   0.0000   0.0000   0.0000   0.0000   0.0000
     0.0000   0.0000   0.0000   0.0000   0.0000   0.0000   0.0000   0.0000
     0.0000   0.0000   0.0000   0.0000

          k =-0.5000-0.2448 0.0813 (  9292 PWs)   bands (ev):

   -31.1940 -15.6874 -15.6718 -11.7798 -11.4757 -11.3754  -7.6627  -7.4578
    -7.4336  -7.3884  -7.0837  -6.7684  -6.5812  -1.2968  -1.2363  -1.1536
    -1.1496  -1.0585  -0.9815   3.3677   3.8092   4.8060   4.9311   4.9419
     4.9449   5.0929   5.2428   5.6836   5.7826   6.3147   6.3307   6.4747
     6.5409   6.5916   6.7876   7.4704   7.6173   7.7378   7.9235   7.9527
     8.1035   8.1253   8.4560   8.5352   8.6003   8.6429   8.7935   8.8074
     9.0375   9.1080   9.1228   9.1739  10.5563  10.6316  10.7769  13.1474
    13.9267  15.0272  15.9009  15.9458  16.2836  16.2874  16.5349  16.9438
    17.1104  17.2911  17.3813  17.5045  17.5701  17.8207  18.3810  19.1382
    19.4754  20.3003  20.4765  20.4925  21.8759  21.8951  22.1697  22.3372
    22.6887  22.7141  23.3703  23.4319  23.9208  24.0427  24.1443  24.2395
    24.9526  25.0630  25.8364  26.3776  26.4612  27.5248  27.6733  28.0581
    28.0637  28.4192  28.7901  28.8091

     occupation numbers 
     1.0000   1.0000   1.0000   1.0000   1.0000   1.0000   1.0000   1.0000
     1.0000   1.0000   1.0000   1.0000   1.0000   1.0000   1.0000   1.0000
     1.0000   1.0000   1.0000   1.0000   1.0000   1.0000   1.0000   1.0000
     1.0000   1.0000   1.0000   1.0000   1.0000   1.0000   1.0000   1.0000
     1.0000   1.0000   1.0000   1.0000   1.0000   1.0000   1.0000   1.0000
     1.0000   1.0000   1.0000   1.0000   1.0000   1.0000   1.0000   1.0000
     1.0000   1.0000   1.0000   1.0000   0.0000   0.0000   0.0000   0.0000
     0.0000   0.0000   0.0000   0.0000   0.0000   0.0000   0.0000   0.0000
     0.0000   0.0000   0.0000   0.0000   0.0000   0.0000   0.0000   0.0000
     0.0000   0.0000   0.0000   0.0000   0.0000   0.0000   0.0000   0.0000
     0.0000   0.0000   0.0000   0.0000   0.0000   0.0000   0.0000   0.0000
     0.0000   0.0000   0.0000   0.0000   0.0000   0.0000   0.0000   0.0000
     0.0000   0.0000   0.0000   0.0000

          k =-0.5000-0.2448-0.1626 (  9308 PWs)   bands (ev):

   -31.1940 -15.6877 -15.6715 -11.7798 -11.4757 -11.3754  -7.6742  -7.4335
    -7.4303  -7.3885  -7.1105  -6.7548  -6.5840  -1.2909  -1.2360  -1.1549
    -1.1485  -1.0587  -0.9883   3.3750   3.7994   4.8150   4.9019   4.9420
     4.9683   5.1179   5.2166   5.7030   5.7732   6.3047   6.3278   6.4615
     6.5351   6.5823   6.7812   7.6060   7.6334   7.6657   7.9350   7.9393
     8.1123   8.1765   8.4362   8.5205   8.5212   8.6776   8.7967   8.8568
     9.0410   9.0455   9.1056   9.1237  10.5698  10.6260  10.8220  13.1754
    13.9384  14.9756  15.8622  15.9130  16.2054  16.3690  16.4427  17.1865
    17.2105  17.3522  17.3522  17.3938  17.5253  17.7696  18.4371  19.1339
    19.4009  20.3216  20.4703  20.8680  21.5572  21.8989  22.1948  22.3335
    22.4875  22.6415  23.3462  23.3521  23.7172  24.1451  24.1722  24.1917
    24.9181  25.4773  25.8249  26.1704  26.8926  27.8237  28.0166  28.0328
    28.0583  28.3908  28.5577  28.7651

     occupation numbers 
     1.0000   1.0000   1.0000   1.0000   1.0000   1.0000   1.0000   1.0000
     1.0000   1.0000   1.0000   1.0000   1.0000   1.0000   1.0000   1.0000
     1.0000   1.0000   1.0000   1.0000   1.0000   1.0000   1.0000   1.0000
     1.0000   1.0000   1.0000   1.0000   1.0000   1.0000   1.0000   1.0000
     1.0000   1.0000   1.0000   1.0000   1.0000   1.0000   1.0000   1.0000
     1.0000   1.0000   1.0000   1.0000   1.0000   1.0000   1.0000   1.0000
     1.0000   1.0000   1.0000   1.0000   0.0000   0.0000   0.0000   0.0000
     0.0000   0.0000   0.0000   0.0000   0.0000   0.0000   0.0000   0.0000
     0.0000   0.0000   0.0000   0.0000   0.0000   0.0000   0.0000   0.0000
     0.0000   0.0000   0.0000   0.0000   0.0000   0.0000   0.0000   0.0000
     0.0000   0.0000   0.0000   0.0000   0.0000   0.0000   0.0000   0.0000
     0.0000   0.0000   0.0000   0.0000   0.0000   0.0000   0.0000   0.0000
     0.0000   0.0000   0.0000   0.0000

          k =-0.5000-0.2448-0.0813 (  9292 PWs)   bands (ev):

   -31.1940 -15.6874 -15.6718 -11.7798 -11.4757 -11.3754  -7.6627  -7.4578
    -7.4336  -7.3884  -7.0837  -6.7684  -6.5812  -1.2968  -1.2363  -1.1536
    -1.1496  -1.0585  -0.9815   3.3677   3.8092   4.8060   4.9311   4.9419
     4.9449   5.0929   5.2428   5.6836   5.7826   6.3147   6.3307   6.4747
     6.5409   6.5916   6.7876   7.4704   7.6173   7.7378   7.9235   7.9527
     8.1035   8.1253   8.4560   8.5352   8.6003   8.6429   8.7935   8.8074
     9.0375   9.1080   9.1228   9.1739  10.5563  10.6316  10.7769  13.1474
    13.9267  15.0272  15.9009  15.9458  16.2836  16.2874  16.5349  16.9438
    17.1104  17.2911  17.3813  17.5045  17.5701  17.8207  18.3810  19.1382
    19.4754  20.3003  20.4765  20.4925  21.8759  21.8951  22.1697  22.3372
    22.6887  22.7141  23.3703  23.4319  23.9208  24.0427  24.1443  24.2395
    24.9526  25.0630  25.8364  26.3776  26.4612  27.5248  27.6733  28.0581
    28.0637  28.4192  28.7901  28.8091

     occupation numbers 
     1.0000   1.0000   1.0000   1.0000   1.0000   1.0000   1.0000   1.0000
     1.0000   1.0000   1.0000   1.0000   1.0000   1.0000   1.0000   1.0000
     1.0000   1.0000   1.0000   1.0000   1.0000   1.0000   1.0000   1.0000
     1.0000   1.0000   1.0000   1.0000   1.0000   1.0000   1.0000   1.0000
     1.0000   1.0000   1.0000   1.0000   1.0000   1.0000   1.0000   1.0000
     1.0000   1.0000   1.0000   1.0000   1.0000   1.0000   1.0000   1.0000
     1.0000   1.0000   1.0000   1.0000   0.0000   0.0000   0.0000   0.0000
     0.0000   0.0000   0.0000   0.0000   0.0000   0.0000   0.0000   0.0000
     0.0000   0.0000   0.0000   0.0000   0.0000   0.0000   0.0000   0.0000
     0.0000   0.0000   0.0000   0.0000   0.0000   0.0000   0.0000   0.0000
     0.0000   0.0000   0.0000   0.0000   0.0000   0.0000   0.0000   0.0000
     0.0000   0.0000   0.0000   0.0000   0.0000   0.0000   0.0000   0.0000
     0.0000   0.0000   0.0000   0.0000

          k =-0.5000-0.1224 0.0000 (  9272 PWs)   bands (ev):

   -31.1980 -15.7156 -15.7005 -11.7946 -11.4441 -11.2859  -7.7296  -7.6799
    -7.6679  -7.2458  -7.1247  -6.8633  -6.5220  -1.3062  -0.9996  -0.9419
    -0.8249  -0.7986  -0.7701   3.7287   3.9867   4.9894   5.2144   5.3644
     5.4240   5.4832   5.5016   5.6602   5.8908   6.0904   6.3241   6.4172
     6.6682   6.8025   7.0777   7.0844   7.3603   7.4621   7.5947   7.6610
     7.6678   7.8813   8.1056   8.4143   8.4695   8.4900   8.5999   8.8092
     8.8855   8.8923   9.0898   9.3031   9.5701   9.8967   9.9266  13.7466
    14.4311  14.8983  15.8763  15.9515  16.3543  16.5304  16.5554  16.7519
    16.8618  17.0250  17.3222  17.4141  17.4439  18.0807  18.4324  18.9899
    18.9923  19.9776  20.5669  20.6602  21.5396  21.8630  22.2086  22.2367
    22.4225  22.6276  23.1429  23.2392  23.3283  24.6779  24.8367  25.1638
    25.4281  25.5083  25.9327  26.2486  27.3539  27.5127  27.6215  27.6940
    27.8054  27.9424  28.7247  28.9336

     occupation numbers 
     1.0000   1.0000   1.0000   1.0000   1.0000   1.0000   1.0000   1.0000
     1.0000   1.0000   1.0000   1.0000   1.0000   1.0000   1.0000   1.0000
     1.0000   1.0000   1.0000   1.0000   1.0000   1.0000   1.0000   1.0000
     1.0000   1.0000   1.0000   1.0000   1.0000   1.0000   1.0000   1.0000
     1.0000   1.0000   1.0000   1.0000   1.0000   1.0000   1.0000   1.0000
     1.0000   1.0000   1.0000   1.0000   1.0000   1.0000   1.0000   1.0000
     1.0000   1.0000   1.0000   1.0000   0.9501   0.0402   0.0197   0.0000
     0.0000   0.0000   0.0000   0.0000   0.0000   0.0000   0.0000   0.0000
     0.0000   0.0000   0.0000   0.0000   0.0000   0.0000   0.0000   0.0000
     0.0000   0.0000   0.0000   0.0000   0.0000   0.0000   0.0000   0.0000
     0.0000   0.0000   0.0000   0.0000   0.0000   0.0000   0.0000   0.0000
     0.0000   0.0000   0.0000   0.0000   0.0000   0.0000   0.0000   0.0000
     0.0000   0.0000   0.0000   0.0000

          k =-0.5000-0.1224 0.0813 (  9288 PWs)   bands (ev):

   -31.1980 -15.7160 -15.7002 -11.7946 -11.4441 -11.2859  -7.7676  -7.6797
    -7.6122  -7.2460  -7.1630  -6.8391  -6.5257  -1.2999  -1.0067  -0.9419
    -0.8250  -0.7973  -0.7717   3.7339   3.9814   4.9960   5.1850   5.3525
     5.4340   5.5194   5.5194   5.6611   5.8710   6.1345   6.3118   6.4204
     6.5495   6.8301   7.0747   7.0756   7.3977   7.4917   7.5714   7.6604
     7.6737   7.9403   8.1323   8.3944   8.4023   8.4943   8.6688   8.8064
     8.8746   8.8909   9.0862   9.2259   9.5832   9.7867  10.0498  13.7620
    14.4474  14.8483  15.9715  15.9838  16.2229  16.5301  16.6398  16.7659
    16.8295  16.9096  17.1937  17.4312  17.5394  18.2910  18.3982  18.9928
    19.0089  20.0470  20.5254  20.5883  21.5225  21.8805  22.2072  22.2744
    22.3890  22.6338  23.0622  23.2020  23.4910  23.5541  25.1798  25.2021
    25.8078  25.8663  26.2557  26.3857  27.1676  27.3396  27.5549  27.7020
    27.8154  28.2075  28.5000  28.8157

     occupation numbers 
     1.0000   1.0000   1.0000   1.0000   1.0000   1.0000   1.0000   1.0000
     1.0000   1.0000   1.0000   1.0000   1.0000   1.0000   1.0000   1.0000
     1.0000   1.0000   1.0000   1.0000   1.0000   1.0000   1.0000   1.0000
     1.0000   1.0000   1.0000   1.0000   1.0000   1.0000   1.0000   1.0000
     1.0000   1.0000   1.0000   1.0000   1.0000   1.0000   1.0000   1.0000
     1.0000   1.0000   1.0000   1.0000   1.0000   1.0000   1.0000   1.0000
     1.0000   1.0000   1.0000   1.0000   0.9344   0.2725   0.0004   0.0000
     0.0000   0.0000   0.0000   0.0000   0.0000   0.0000   0.0000   0.0000
     0.0000   0.0000   0.0000   0.0000   0.0000   0.0000   0.0000   0.0000
     0.0000   0.0000   0.0000   0.0000   0.0000   0.0000   0.0000   0.0000
     0.0000   0.0000   0.0000   0.0000   0.0000   0.0000   0.0000   0.0000
     0.0000   0.0000   0.0000   0.0000   0.0000   0.0000   0.0000   0.0000
     0.0000   0.0000   0.0000   0.0000

          k =-0.5000-0.1224-0.1626 (  9296 PWs)   bands (ev):

   -31.1980 -15.7163 -15.6998 -11.7946 -11.4441 -11.2859  -7.7884  -7.6795
    -7.5705  -7.2462  -7.2008  -6.8183  -6.5295  -1.2933  -1.0141  -0.9418
    -0.8250  -0.7957  -0.7735   3.7393   3.9759   5.0039   5.1582   5.3445
     5.4383   5.5393   5.5539   5.6625   5.8486   6.2130   6.3018   6.4125
     6.4208   6.8541   7.0631   7.0688   7.4429   7.5029   7.5386   7.6785
     7.6804   8.0122   8.1572   8.3355   8.3715   8.4988   8.7563   8.8036
     8.8424   8.8895   9.0827   9.1379   9.5984   9.7410  10.1066  13.7784
    14.4638  14.7992  16.0710  16.0831  16.1449  16.3982  16.6634  16.7264
    16.8241  16.8309  17.4003  17.4014  17.4137  18.3640  18.5065  18.9955
    19.0179  20.2006  20.3110  20.6099  21.5125  21.9083  22.2360  22.3081
    22.3454  22.6498  22.7789  23.1857  23.2182  23.6422  25.1564  25.2036
    25.7818  26.2447  26.3011  26.5616  27.1981  27.4485  27.8448  27.8781
    28.0028  28.2044  28.2153  28.3240

     occupation numbers 
     1.0000   1.0000   1.0000   1.0000   1.0000   1.0000   1.0000   1.0000
     1.0000   1.0000   1.0000   1.0000   1.0000   1.0000   1.0000   1.0000
     1.0000   1.0000   1.0000   1.0000   1.0000   1.0000   1.0000   1.0000
     1.0000   1.0000   1.0000   1.0000   1.0000   1.0000   1.0000   1.0000
     1.0000   1.0000   1.0000   1.0000   1.0000   1.0000   1.0000   1.0000
     1.0000   1.0000   1.0000   1.0000   1.0000   1.0000   1.0000   1.0000
     1.0000   1.0000   1.0000   1.0000   0.9118   0.4483   0.0000   0.0000
     0.0000   0.0000   0.0000   0.0000   0.0000   0.0000   0.0000   0.0000
     0.0000   0.0000   0.0000   0.0000   0.0000   0.0000   0.0000   0.0000
     0.0000   0.0000   0.0000   0.0000   0.0000   0.0000   0.0000   0.0000
     0.0000   0.0000   0.0000   0.0000   0.0000   0.0000   0.0000   0.0000
     0.0000   0.0000   0.0000   0.0000   0.0000   0.0000   0.0000   0.0000
     0.0000   0.0000   0.0000   0.0000

          k =-0.5000-0.1224-0.0813 (  9288 PWs)   bands (ev):

   -31.1980 -15.7160 -15.7002 -11.7946 -11.4441 -11.2859  -7.7676  -7.6797
    -7.6122  -7.2460  -7.1630  -6.8391  -6.5257  -1.2999  -1.0067  -0.9419
    -0.8250  -0.7973  -0.7717   3.7339   3.9814   4.9960   5.1850   5.3525
     5.4340   5.5194   5.5194   5.6611   5.8710   6.1345   6.3118   6.4204
     6.5495   6.8301   7.0747   7.0756   7.3977   7.4917   7.5714   7.6604
     7.6737   7.9403   8.1323   8.3944   8.4023   8.4943   8.6688   8.8064
     8.8746   8.8909   9.0862   9.2259   9.5832   9.7867  10.0498  13.7620
    14.4474  14.8483  15.9715  15.9838  16.2229  16.5301  16.6398  16.7659
    16.8295  16.9096  17.1937  17.4312  17.5394  18.2910  18.3982  18.9928
    19.0089  20.0470  20.5254  20.5883  21.5225  21.8805  22.2072  22.2744
    22.3890  22.6338  23.0622  23.2020  23.4910  23.5541  25.1798  25.2021
    25.8078  25.8663  26.2557  26.3857  27.1676  27.3396  27.5549  27.7020
    27.8154  28.2075  28.5000  28.8157

     occupation numbers 
     1.0000   1.0000   1.0000   1.0000   1.0000   1.0000   1.0000   1.0000
     1.0000   1.0000   1.0000   1.0000   1.0000   1.0000   1.0000   1.0000
     1.0000   1.0000   1.0000   1.0000   1.0000   1.0000   1.0000   1.0000
     1.0000   1.0000   1.0000   1.0000   1.0000   1.0000   1.0000   1.0000
     1.0000   1.0000   1.0000   1.0000   1.0000   1.0000   1.0000   1.0000
     1.0000   1.0000   1.0000   1.0000   1.0000   1.0000   1.0000   1.0000
     1.0000   1.0000   1.0000   1.0000   0.9344   0.2725   0.0004   0.0000
     0.0000   0.0000   0.0000   0.0000   0.0000   0.0000   0.0000   0.0000
     0.0000   0.0000   0.0000   0.0000   0.0000   0.0000   0.0000   0.0000
     0.0000   0.0000   0.0000   0.0000   0.0000   0.0000   0.0000   0.0000
     0.0000   0.0000   0.0000   0.0000   0.0000   0.0000   0.0000   0.0000
     0.0000   0.0000   0.0000   0.0000   0.0000   0.0000   0.0000   0.0000
     0.0000   0.0000   0.0000   0.0000

          k =-0.3750 0.0000 0.0000 (  9282 PWs)   bands (ev):

   -31.2018 -15.7484 -15.7316 -11.7251 -11.5128 -11.2028  -7.8984  -7.6971
    -7.6836  -7.2002  -7.1649  -6.8460  -6.5109  -1.2987  -1.0209  -0.7989
    -0.7030  -0.6694  -0.6468   3.9971   4.1674   5.0154   5.2960   5.3423
     5.3887   5.9650   6.0240   6.0954   6.1122   6.1660   6.1962   6.2050
     6.7548   6.7805   6.9653   7.1798   7.1909   7.3951   7.5171   7.6316
     7.6963   7.8604   7.9489   8.2296   8.3820   8.4080   8.7165   8.7362
     8.8877   8.9036   8.9212   8.9771   9.0917   9.4038   9.6837  13.8425
    14.4436  14.8665  15.5940  15.8489  16.1009  16.3678  16.4289  16.5895
    16.8029  17.0737  17.1513  17.1772  17.8149  18.1099  18.4722  18.9560
    19.0061  19.0310  19.7545  20.5690  20.8462  21.3120  21.4537  22.1106
    22.8396  23.4018  23.4923  23.7131  24.3528  24.7383  24.9641  25.1391
    25.7755  26.2474  26.5993  26.7665  26.8500  26.9568  27.2362  27.3416
    27.5066  28.5886  28.7044  28.8067

     occupation numbers 
     1.0000   1.0000   1.0000   1.0000   1.0000   1.0000   1.0000   1.0000
     1.0000   1.0000   1.0000   1.0000   1.0000   1.0000   1.0000   1.0000
     1.0000   1.0000   1.0000   1.0000   1.0000   1.0000   1.0000   1.0000
     1.0000   1.0000   1.0000   1.0000   1.0000   1.0000   1.0000   1.0000
     1.0000   1.0000   1.0000   1.0000   1.0000   1.0000   1.0000   1.0000
     1.0000   1.0000   1.0000   1.0000   1.0000   1.0000   1.0000   1.0000
     1.0000   1.0000   1.0000   1.0000   1.0000   0.9996   0.6791   0.0000
     0.0000   0.0000   0.0000   0.0000   0.0000   0.0000   0.0000   0.0000
     0.0000   0.0000   0.0000   0.0000   0.0000   0.0000   0.0000   0.0000
     0.0000   0.0000   0.0000   0.0000   0.0000   0.0000   0.0000   0.0000
     0.0000   0.0000   0.0000   0.0000   0.0000   0.0000   0.0000   0.0000
     0.0000   0.0000   0.0000   0.0000   0.0000   0.0000   0.0000   0.0000
     0.0000   0.0000   0.0000   0.0000

          k =-0.3750 0.0000 0.0813 (  9292 PWs)   bands (ev):

   -31.2018 -15.7487 -15.7312 -11.7251 -11.5128 -11.2028  -7.8976  -7.7449
    -7.6238  -7.2013  -7.1877  -6.8330  -6.5130  -1.2925  -1.0284  -0.8006
    -0.7007  -0.6701  -0.6460   4.0025   4.1627   5.0158   5.2951   5.3477
     5.3889   5.9579   6.0240   6.0992   6.1172   6.1625   6.1956   6.2602
     6.5862   6.8189   6.9464   7.1797   7.2535   7.4200   7.5342   7.6330
     7.6951   7.9092   7.9752   8.1853   8.3547   8.4042   8.7329   8.7398
     8.8592   8.8784   8.9368   8.9606   9.1410   9.3555   9.6959  13.8724
    14.4374  14.8666  15.5710  15.7676  16.0650  16.3582  16.4911  16.5118
    16.8321  17.0970  17.2246  17.2761  17.9374  18.0289  18.3960  19.0087
    19.0290  19.1087  19.6855  20.5833  20.5991  21.0983  21.7311  22.4125
    22.8534  23.1663  23.4166  23.4910  23.8780  24.8256  25.1377  25.5450
    26.0559  26.2135  26.4109  26.5866  26.7827  27.1237  27.5730  27.5848
    27.6675  28.5254  28.5771  28.5967

     occupation numbers 
     1.0000   1.0000   1.0000   1.0000   1.0000   1.0000   1.0000   1.0000
     1.0000   1.0000   1.0000   1.0000   1.0000   1.0000   1.0000   1.0000
     1.0000   1.0000   1.0000   1.0000   1.0000   1.0000   1.0000   1.0000
     1.0000   1.0000   1.0000   1.0000   1.0000   1.0000   1.0000   1.0000
     1.0000   1.0000   1.0000   1.0000   1.0000   1.0000   1.0000   1.0000
     1.0000   1.0000   1.0000   1.0000   1.0000   1.0000   1.0000   1.0000
     1.0000   1.0000   1.0000   1.0000   1.0000   0.9999   0.6326   0.0000
     0.0000   0.0000   0.0000   0.0000   0.0000   0.0000   0.0000   0.0000
     0.0000   0.0000   0.0000   0.0000   0.0000   0.0000   0.0000   0.0000
     0.0000   0.0000   0.0000   0.0000   0.0000   0.0000   0.0000   0.0000
     0.0000   0.0000   0.0000   0.0000   0.0000   0.0000   0.0000   0.0000
     0.0000   0.0000   0.0000   0.0000   0.0000   0.0000   0.0000   0.0000
     0.0000   0.0000   0.0000   0.0000

          k =-0.3750 0.0000-0.1626 (  9276 PWs)   bands (ev):

   -31.2018 -15.7491 -15.7308 -11.7251 -11.5128 -11.2028  -7.8967  -7.7651
    -7.5900  -7.2141  -7.1993  -6.8209  -6.5151  -1.2860  -1.0362  -0.8021
    -0.6985  -0.6708  -0.6453   4.0083   4.1576   5.0163   5.2942   5.3527
     5.3890   5.9347   6.0240   6.1235   6.1577   6.1952   6.2000   6.2640
     6.4237   6.8674   6.9197   7.1796   7.2480   7.4649   7.5682   7.6344
     7.6938   7.9561   8.0428   8.0971   8.3259   8.4005   8.7452   8.7554
     8.8315   8.8514   8.9455   8.9491   9.2434   9.2491   9.7073  13.9053
    14.4281  14.8668  15.5360  15.7055  16.0450  16.3218  16.4551  16.5914
    16.8781  17.0588  17.2753  17.3826  17.9198  18.1253  18.3129  19.0117
    19.0266  19.4060  19.4347  20.4748  20.6249  20.8752  22.1558  22.4159
    22.6255  22.8665  23.4508  23.4711  24.1163  24.5326  25.1362  25.4444
    26.1889  26.2247  26.3390  26.7070  27.0111  27.5297  27.6025  27.8311
    28.0879  28.1927  28.3285  28.5042

     occupation numbers 
     1.0000   1.0000   1.0000   1.0000   1.0000   1.0000   1.0000   1.0000
     1.0000   1.0000   1.0000   1.0000   1.0000   1.0000   1.0000   1.0000
     1.0000   1.0000   1.0000   1.0000   1.0000   1.0000   1.0000   1.0000
     1.0000   1.0000   1.0000   1.0000   1.0000   1.0000   1.0000   1.0000
     1.0000   1.0000   1.0000   1.0000   1.0000   1.0000   1.0000   1.0000
     1.0000   1.0000   1.0000   1.0000   1.0000   1.0000   1.0000   1.0000
     1.0000   1.0000   1.0000   1.0000   1.0000   1.0000   0.5869   0.0000
     0.0000   0.0000   0.0000   0.0000   0.0000   0.0000   0.0000   0.0000
     0.0000   0.0000   0.0000   0.0000   0.0000   0.0000   0.0000   0.0000
     0.0000   0.0000   0.0000   0.0000   0.0000   0.0000   0.0000   0.0000
     0.0000   0.0000   0.0000   0.0000   0.0000   0.0000   0.0000   0.0000
     0.0000   0.0000   0.0000   0.0000   0.0000   0.0000   0.0000   0.0000
     0.0000   0.0000   0.0000   0.0000

          k =-0.3750 0.0000-0.0813 (  9292 PWs)   bands (ev):

   -31.2018 -15.7487 -15.7312 -11.7251 -11.5128 -11.2028  -7.8976  -7.7449
    -7.6238  -7.2013  -7.1877  -6.8330  -6.5130  -1.2925  -1.0284  -0.8006
    -0.7007  -0.6701  -0.6460   4.0025   4.1627   5.0158   5.2951   5.3477
     5.3889   5.9579   6.0240   6.0992   6.1172   6.1625   6.1956   6.2602
     6.5862   6.8189   6.9464   7.1797   7.2535   7.4200   7.5342   7.6330
     7.6951   7.9092   7.9752   8.1853   8.3547   8.4042   8.7329   8.7398
     8.8592   8.8784   8.9368   8.9606   9.1410   9.3555   9.6959  13.8724
    14.4374  14.8666  15.5710  15.7676  16.0650  16.3582  16.4911  16.5118
    16.8321  17.0970  17.2246  17.2761  17.9374  18.0289  18.3960  19.0087
    19.0290  19.1087  19.6855  20.5833  20.5991  21.0983  21.7311  22.4125
    22.8534  23.1663  23.4166  23.4910  23.8780  24.8256  25.1377  25.5450
    26.0559  26.2135  26.4109  26.5866  26.7827  27.1237  27.5730  27.5848
    27.6675  28.5254  28.5771  28.5967

     occupation numbers 
     1.0000   1.0000   1.0000   1.0000   1.0000   1.0000   1.0000   1.0000
     1.0000   1.0000   1.0000   1.0000   1.0000   1.0000   1.0000   1.0000
     1.0000   1.0000   1.0000   1.0000   1.0000   1.0000   1.0000   1.0000
     1.0000   1.0000   1.0000   1.0000   1.0000   1.0000   1.0000   1.0000
     1.0000   1.0000   1.0000   1.0000   1.0000   1.0000   1.0000   1.0000
     1.0000   1.0000   1.0000   1.0000   1.0000   1.0000   1.0000   1.0000
     1.0000   1.0000   1.0000   1.0000   1.0000   0.9999   0.6326   0.0000
     0.0000   0.0000   0.0000   0.0000   0.0000   0.0000   0.0000   0.0000
     0.0000   0.0000   0.0000   0.0000   0.0000   0.0000   0.0000   0.0000
     0.0000   0.0000   0.0000   0.0000   0.0000   0.0000   0.0000   0.0000
     0.0000   0.0000   0.0000   0.0000   0.0000   0.0000   0.0000   0.0000
     0.0000   0.0000   0.0000   0.0000   0.0000   0.0000   0.0000   0.0000
     0.0000   0.0000   0.0000   0.0000

          k =-0.3750 0.1224 0.0000 (  9289 PWs)   bands (ev):

   -31.2002 -15.7359 -15.7193 -11.7194 -11.4849 -11.2897  -7.7915  -7.6674
    -7.6210  -7.2584  -7.1399  -6.8251  -6.5300  -1.2953  -1.0265  -0.9797
    -0.9095  -0.6954  -0.6801   3.8785   4.1333   4.9883   5.1673   5.1861
     5.4259   5.6732   5.7067   5.7149   5.9235   6.1247   6.3188   6.4061
     6.7272   6.8426   7.1109   7.1763   7.3307   7.4538   7.5425   7.6114
     7.7007   7.8752   8.1659   8.3029   8.4240   8.4625   8.6898   8.7781
     8.7979   8.8490   9.0459   9.3407   9.5768   9.8955   9.9555  13.7192
    14.4526  14.6329  15.5765  15.8987  16.0654  16.3123  16.4986  16.7592
    16.7787  17.0897  17.1863  17.4693  17.6366  18.0279  18.4151  18.6176
    19.0479  19.4257  19.8971  20.6406  20.8054  21.1226  21.9095  22.2743
    22.8481  23.3366  23.4601  23.7155  24.5160  24.8232  24.8351  24.8772
    25.5857  26.0150  26.3024  26.4097  26.6735  27.3018  27.6758  27.8822
    27.9192  28.2503  28.8761  28.8912

     occupation numbers 
     1.0000   1.0000   1.0000   1.0000   1.0000   1.0000   1.0000   1.0000
     1.0000   1.0000   1.0000   1.0000   1.0000   1.0000   1.0000   1.0000
     1.0000   1.0000   1.0000   1.0000   1.0000   1.0000   1.0000   1.0000
     1.0000   1.0000   1.0000   1.0000   1.0000   1.0000   1.0000   1.0000
     1.0000   1.0000   1.0000   1.0000   1.0000   1.0000   1.0000   1.0000
     1.0000   1.0000   1.0000   1.0000   1.0000   1.0000   1.0000   1.0000
     1.0000   1.0000   1.0000   1.0000   0.9426   0.0413   0.0091   0.0000
     0.0000   0.0000   0.0000   0.0000   0.0000   0.0000   0.0000   0.0000
     0.0000   0.0000   0.0000   0.0000   0.0000   0.0000   0.0000   0.0000
     0.0000   0.0000   0.0000   0.0000   0.0000   0.0000   0.0000   0.0000
     0.0000   0.0000   0.0000   0.0000   0.0000   0.0000   0.0000   0.0000
     0.0000   0.0000   0.0000   0.0000   0.0000   0.0000   0.0000   0.0000
     0.0000   0.0000   0.0000   0.0000

          k =-0.3750 0.1224 0.0813 (  9281 PWs)   bands (ev):

   -31.2002 -15.7363 -15.7189 -11.7194 -11.4849 -11.2897  -7.7901  -7.7007
    -7.5778  -7.2582  -7.1607  -6.8142  -6.5317  -1.2914  -1.0297  -0.9835
    -0.9070  -0.6970  -0.6785   3.8847   4.1271   4.9944   5.1376   5.1978
     5.4366   5.6690   5.7049   5.7324   5.9168   6.1657   6.3186   6.4004
     6.6021   6.8606   7.1022   7.2009   7.3885   7.4633   7.5531   7.5933
     7.7219   7.9296   8.1584   8.2676   8.4176   8.4341   8.7120   8.7752
     8.7942   8.8794   9.0328   9.2641   9.6011   9.8080  10.0482  13.7382
    14.4314  14.6483  15.6431  15.8904  16.0664  16.2520  16.4575  16.6867
    16.8405  16.9819  17.2039  17.5146  17.6437  18.1573  18.4260  18.6630
    19.0257  19.4935  19.9077  20.6179  20.7325  21.1279  22.0207  22.1767
    22.7296  23.2807  23.3959  23.6718  23.8437  24.6784  25.0179  25.5553
    25.8791  26.0962  26.3240  26.6172  26.6822  27.2919  27.5479  27.8528
    28.0216  28.2539  28.6483  28.7541

     occupation numbers 
     1.0000   1.0000   1.0000   1.0000   1.0000   1.0000   1.0000   1.0000
     1.0000   1.0000   1.0000   1.0000   1.0000   1.0000   1.0000   1.0000
     1.0000   1.0000   1.0000   1.0000   1.0000   1.0000   1.0000   1.0000
     1.0000   1.0000   1.0000   1.0000   1.0000   1.0000   1.0000   1.0000
     1.0000   1.0000   1.0000   1.0000   1.0000   1.0000   1.0000   1.0000
     1.0000   1.0000   1.0000   1.0000   1.0000   1.0000   1.0000   1.0000
     1.0000   1.0000   1.0000   1.0000   0.9073   0.2041   0.0004   0.0000
     0.0000   0.0000   0.0000   0.0000   0.0000   0.0000   0.0000   0.0000
     0.0000   0.0000   0.0000   0.0000   0.0000   0.0000   0.0000   0.0000
     0.0000   0.0000   0.0000   0.0000   0.0000   0.0000   0.0000   0.0000
     0.0000   0.0000   0.0000   0.0000   0.0000   0.0000   0.0000   0.0000
     0.0000   0.0000   0.0000   0.0000   0.0000   0.0000   0.0000   0.0000
     0.0000   0.0000   0.0000   0.0000

          k =-0.3750 0.1224-0.1626 (  9284 PWs)   bands (ev):

   -31.2002 -15.7367 -15.7185 -11.7194 -11.4849 -11.2897  -7.7884  -7.7195
    -7.5480  -7.2577  -7.1822  -6.8040  -6.5335  -1.2873  -1.0334  -0.9868
    -0.9048  -0.6984  -0.6770   3.8912   4.1206   5.0020   5.1151   5.2012
     5.4476   5.6601   5.7189   5.7395   5.9056   6.2599   6.3275   6.3417
     6.4937   6.8667   7.1042   7.2109   7.4260   7.4947   7.5464   7.5820
     7.7498   8.0085   8.1300   8.2269   8.3769   8.4394   8.7310   8.7723
     8.7906   8.9466   9.0015   9.1719   9.6283   9.7601  10.0962  13.7584
    14.4077  14.6652  15.7317  15.9284  15.9810  16.2204  16.3943  16.6446
    16.8603  16.9213  17.2916  17.4864  17.6226  18.2321  18.5377  18.6860
    18.9928  19.5838  19.8921  20.5503  20.7416  21.1298  22.0816  22.1884
    22.4410  22.9981  23.3377  23.8016  23.8513  24.6401  25.0835  25.5786
    25.9078  25.9888  26.6701  26.6984  27.1894  27.2906  27.5102  27.9274
    28.0127  28.2078  28.5060  28.5403

     occupation numbers 
     1.0000   1.0000   1.0000   1.0000   1.0000   1.0000   1.0000   1.0000
     1.0000   1.0000   1.0000   1.0000   1.0000   1.0000   1.0000   1.0000
     1.0000   1.0000   1.0000   1.0000   1.0000   1.0000   1.0000   1.0000
     1.0000   1.0000   1.0000   1.0000   1.0000   1.0000   1.0000   1.0000
     1.0000   1.0000   1.0000   1.0000   1.0000   1.0000   1.0000   1.0000
     1.0000   1.0000   1.0000   1.0000   1.0000   1.0000   1.0000   1.0000
     1.0000   1.0000   1.0000   1.0000   0.8511   0.3712   0.0001   0.0000
     0.0000   0.0000   0.0000   0.0000   0.0000   0.0000   0.0000   0.0000
     0.0000   0.0000   0.0000   0.0000   0.0000   0.0000   0.0000   0.0000
     0.0000   0.0000   0.0000   0.0000   0.0000   0.0000   0.0000   0.0000
     0.0000   0.0000   0.0000   0.0000   0.0000   0.0000   0.0000   0.0000
     0.0000   0.0000   0.0000   0.0000   0.0000   0.0000   0.0000   0.0000
     0.0000   0.0000   0.0000   0.0000

          k =-0.3750 0.1224-0.0813 (  9281 PWs)   bands (ev):

   -31.2002 -15.7363 -15.7189 -11.7194 -11.4849 -11.2897  -7.7901  -7.7007
    -7.5778  -7.2582  -7.1607  -6.8142  -6.5317  -1.2914  -1.0297  -0.9835
    -0.9070  -0.6970  -0.6785   3.8847   4.1271   4.9944   5.1376   5.1978
     5.4366   5.6690   5.7049   5.7324   5.9168   6.1657   6.3186   6.4004
     6.6021   6.8606   7.1022   7.2009   7.3885   7.4633   7.5531   7.5933
     7.7219   7.9296   8.1584   8.2676   8.4176   8.4341   8.7120   8.7752
     8.7942   8.8794   9.0328   9.2641   9.6011   9.8080  10.0482  13.7382
    14.4314  14.6483  15.6431  15.8904  16.0664  16.2520  16.4575  16.6867
    16.8405  16.9819  17.2039  17.5146  17.6437  18.1573  18.4260  18.6630
    19.0257  19.4935  19.9077  20.6179  20.7325  21.1279  22.0207  22.1767
    22.7296  23.2807  23.3959  23.6718  23.8437  24.6784  25.0179  25.5553
    25.8791  26.0962  26.3240  26.6172  26.6822  27.2919  27.5479  27.8528
    28.0216  28.2539  28.6483  28.7541

     occupation numbers 
     1.0000   1.0000   1.0000   1.0000   1.0000   1.0000   1.0000   1.0000
     1.0000   1.0000   1.0000   1.0000   1.0000   1.0000   1.0000   1.0000
     1.0000   1.0000   1.0000   1.0000   1.0000   1.0000   1.0000   1.0000
     1.0000   1.0000   1.0000   1.0000   1.0000   1.0000   1.0000   1.0000
     1.0000   1.0000   1.0000   1.0000   1.0000   1.0000   1.0000   1.0000
     1.0000   1.0000   1.0000   1.0000   1.0000   1.0000   1.0000   1.0000
     1.0000   1.0000   1.0000   1.0000   0.9073   0.2041   0.0004   0.0000
     0.0000   0.0000   0.0000   0.0000   0.0000   0.0000   0.0000   0.0000
     0.0000   0.0000   0.0000   0.0000   0.0000   0.0000   0.0000   0.0000
     0.0000   0.0000   0.0000   0.0000   0.0000   0.0000   0.0000   0.0000
     0.0000   0.0000   0.0000   0.0000   0.0000   0.0000   0.0000   0.0000
     0.0000   0.0000   0.0000   0.0000   0.0000   0.0000   0.0000   0.0000
     0.0000   0.0000   0.0000   0.0000

          k =-0.3750 0.2448 0.0000 (  9294 PWs)   bands (ev):

   -31.1962 -15.7057 -15.6892 -11.7055 -11.4810 -11.4147  -7.5980  -7.5512
    -7.4424  -7.3972  -7.0840  -6.7737  -6.5987  -1.3277  -1.3033  -1.1617
    -1.0116  -0.9268  -0.8799   3.5258   3.9838   4.8002   4.9112   4.9256
     5.0463   5.1051   5.3758   5.6747   5.8136   6.2584   6.3175   6.5215
     6.5748   6.6384   6.8377   7.3402   7.5850   7.6235   7.8643   7.9346
     7.9997   8.1232   8.3969   8.5259   8.6198   8.6777   8.7328   8.7826
     8.8427   8.9423   9.2971   9.3856  10.4750  10.6305  10.6701  13.2737
    14.0183  14.8323  15.6380  16.0652  16.0761  16.3044  16.6930  16.7357
    16.7525  17.1359  17.4094  17.4893  17.5665  17.8651  18.1760  19.1469
    19.2530  19.9337  20.2583  20.6179  20.7080  20.9159  21.8996  22.3931
    22.9242  23.3527  23.6787  24.1183  24.2295  24.9543  24.9787  25.0593
    25.1247  25.4431  25.8778  26.0656  26.3005  27.1910  27.6331  27.7063
    28.1723  28.3529  28.5468  28.7646

     occupation numbers 
     1.0000   1.0000   1.0000   1.0000   1.0000   1.0000   1.0000   1.0000
     1.0000   1.0000   1.0000   1.0000   1.0000   1.0000   1.0000   1.0000
     1.0000   1.0000   1.0000   1.0000   1.0000   1.0000   1.0000   1.0000
     1.0000   1.0000   1.0000   1.0000   1.0000   1.0000   1.0000   1.0000
     1.0000   1.0000   1.0000   1.0000   1.0000   1.0000   1.0000   1.0000
     1.0000   1.0000   1.0000   1.0000   1.0000   1.0000   1.0000   1.0000
     1.0000   1.0000   1.0000   0.9998   0.0000   0.0000   0.0000   0.0000
     0.0000   0.0000   0.0000   0.0000   0.0000   0.0000   0.0000   0.0000
     0.0000   0.0000   0.0000   0.0000   0.0000   0.0000   0.0000   0.0000
     0.0000   0.0000   0.0000   0.0000   0.0000   0.0000   0.0000   0.0000
     0.0000   0.0000   0.0000   0.0000   0.0000   0.0000   0.0000   0.0000
     0.0000   0.0000   0.0000   0.0000   0.0000   0.0000   0.0000   0.0000
     0.0000   0.0000   0.0000   0.0000

          k =-0.3750 0.2448 0.0813 (  9303 PWs)   bands (ev):

   -31.1962 -15.7060 -15.6889 -11.7055 -11.4810 -11.4147  -7.6097  -7.5445
    -7.4325  -7.3949  -7.0958  -6.7683  -6.5997  -1.3261  -1.3046  -1.1581
    -1.0166  -0.9292  -0.8769   3.5339   3.9726   4.8048   4.8912   4.9292
     5.0599   5.1142   5.3598   5.6819   5.8215   6.2625   6.3298   6.4843
     6.5637   6.6207   6.8271   7.4436   7.6007   7.6271   7.8368   7.9473
     8.0015   8.1595   8.3592   8.5101   8.6097   8.6517   8.7228   8.7974
     8.8841   8.9415   9.2320   9.3434  10.4880  10.6127  10.7307  13.3052
    14.0197  14.8119  15.6641  16.0312  16.0843  16.2191  16.4822  16.7831
    16.9627  17.0929  17.3924  17.5123  17.5903  17.9238  18.2734  19.0599
    19.2311  19.9703  20.3267  20.5520  20.7671  21.0386  21.8999  22.4292
    22.4431  23.2095  23.7685  24.0014  24.1616  24.6228  25.0043  25.1273
    25.2525  25.8320  26.0438  26.2637  26.5325  27.2781  27.4764  27.7794
    28.0533  28.3586  28.5836  28.8686

     occupation numbers 
     1.0000   1.0000   1.0000   1.0000   1.0000   1.0000   1.0000   1.0000
     1.0000   1.0000   1.0000   1.0000   1.0000   1.0000   1.0000   1.0000
     1.0000   1.0000   1.0000   1.0000   1.0000   1.0000   1.0000   1.0000
     1.0000   1.0000   1.0000   1.0000   1.0000   1.0000   1.0000   1.0000
     1.0000   1.0000   1.0000   1.0000   1.0000   1.0000   1.0000   1.0000
     1.0000   1.0000   1.0000   1.0000   1.0000   1.0000   1.0000   1.0000
     1.0000   1.0000   1.0000   1.0000   0.0000   0.0000   0.0000   0.0000
     0.0000   0.0000   0.0000   0.0000   0.0000   0.0000   0.0000   0.0000
     0.0000   0.0000   0.0000   0.0000   0.0000   0.0000   0.0000   0.0000
     0.0000   0.0000   0.0000   0.0000   0.0000   0.0000   0.0000   0.0000
     0.0000   0.0000   0.0000   0.0000   0.0000   0.0000   0.0000   0.0000
     0.0000   0.0000   0.0000   0.0000   0.0000   0.0000   0.0000   0.0000
     0.0000   0.0000   0.0000   0.0000

          k =-0.3750 0.2448-0.1626 (  9284 PWs)   bands (ev):

   -31.1962 -15.7063 -15.6886 -11.7055 -11.4810 -11.4147  -7.6185  -7.5403
    -7.4239  -7.3907  -7.1079  -6.7630  -6.6008  -1.3245  -1.3058  -1.1543
    -1.0216  -0.9315  -0.8741   3.5423   3.9609   4.8109   4.8738   4.9309
     5.0722   5.1231   5.3443   5.6855   5.8333   6.2665   6.3620   6.4188
     6.5570   6.6068   6.8245   7.5762   7.5817   7.6625   7.7666   7.9674
     8.0043   8.2421   8.2847   8.4989   8.5488   8.6860   8.6994   8.8080
     8.9215   8.9689   9.1112   9.3312  10.4991  10.6039  10.7793  13.3390
    14.0189  14.7866  15.7930  15.8839  16.0870  16.1648  16.3599  16.8200
    17.0567  17.0960  17.3855  17.5816  17.5920  17.9000  18.4232  18.9540
    19.2094  20.0059  20.3738  20.5312  20.7776  21.4386  21.7420  21.9052
    22.4790  23.1431  23.5960  23.8741  24.2409  24.7688  25.0495  25.1619
    25.2327  25.7783  26.1716  26.2706  27.0219  27.4490  27.4715  27.8944
    27.9712  28.2497  28.6707  29.0337

     occupation numbers 
     1.0000   1.0000   1.0000   1.0000   1.0000   1.0000   1.0000   1.0000
     1.0000   1.0000   1.0000   1.0000   1.0000   1.0000   1.0000   1.0000
     1.0000   1.0000   1.0000   1.0000   1.0000   1.0000   1.0000   1.0000
     1.0000   1.0000   1.0000   1.0000   1.0000   1.0000   1.0000   1.0000
     1.0000   1.0000   1.0000   1.0000   1.0000   1.0000   1.0000   1.0000
     1.0000   1.0000   1.0000   1.0000   1.0000   1.0000   1.0000   1.0000
     1.0000   1.0000   1.0000   1.0000   0.0000   0.0000   0.0000   0.0000
     0.0000   0.0000   0.0000   0.0000   0.0000   0.0000   0.0000   0.0000
     0.0000   0.0000   0.0000   0.0000   0.0000   0.0000   0.0000   0.0000
     0.0000   0.0000   0.0000   0.0000   0.0000   0.0000   0.0000   0.0000
     0.0000   0.0000   0.0000   0.0000   0.0000   0.0000   0.0000   0.0000
     0.0000   0.0000   0.0000   0.0000   0.0000   0.0000   0.0000   0.0000
     0.0000   0.0000   0.0000   0.0000

          k =-0.3750 0.2448-0.0813 (  9303 PWs)   bands (ev):

   -31.1962 -15.7060 -15.6889 -11.7055 -11.4810 -11.4147  -7.6097  -7.5445
    -7.4325  -7.3949  -7.0958  -6.7683  -6.5997  -1.3261  -1.3046  -1.1581
    -1.0166  -0.9292  -0.8769   3.5339   3.9726   4.8048   4.8912   4.9292
     5.0599   5.1142   5.3598   5.6819   5.8215   6.2625   6.3298   6.4843
     6.5637   6.6207   6.8271   7.4436   7.6007   7.6271   7.8368   7.9473
     8.0015   8.1595   8.3592   8.5101   8.6097   8.6517   8.7228   8.7974
     8.8841   8.9415   9.2320   9.3434  10.4880  10.6127  10.7307  13.3052
    14.0197  14.8119  15.6641  16.0312  16.0843  16.2191  16.4822  16.7831
    16.9627  17.0929  17.3924  17.5123  17.5903  17.9238  18.2734  19.0599
    19.2311  19.9703  20.3267  20.5520  20.7671  21.0386  21.8999  22.4292
    22.4431  23.2095  23.7685  24.0014  24.1616  24.6228  25.0043  25.1273
    25.2525  25.8320  26.0438  26.2637  26.5325  27.2781  27.4764  27.7794
    28.0533  28.3586  28.5836  28.8686

     occupation numbers 
     1.0000   1.0000   1.0000   1.0000   1.0000   1.0000   1.0000   1.0000
     1.0000   1.0000   1.0000   1.0000   1.0000   1.0000   1.0000   1.0000
     1.0000   1.0000   1.0000   1.0000   1.0000   1.0000   1.0000   1.0000
     1.0000   1.0000   1.0000   1.0000   1.0000   1.0000   1.0000   1.0000
     1.0000   1.0000   1.0000   1.0000   1.0000   1.0000   1.0000   1.0000
     1.0000   1.0000   1.0000   1.0000   1.0000   1.0000   1.0000   1.0000
     1.0000   1.0000   1.0000   1.0000   0.0000   0.0000   0.0000   0.0000
     0.0000   0.0000   0.0000   0.0000   0.0000   0.0000   0.0000   0.0000
     0.0000   0.0000   0.0000   0.0000   0.0000   0.0000   0.0000   0.0000
     0.0000   0.0000   0.0000   0.0000   0.0000   0.0000   0.0000   0.0000
     0.0000   0.0000   0.0000   0.0000   0.0000   0.0000   0.0000   0.0000
     0.0000   0.0000   0.0000   0.0000   0.0000   0.0000   0.0000   0.0000
     0.0000   0.0000   0.0000   0.0000

          k =-0.3750 0.3672 0.0000 (  9307 PWs)   bands (ev):

   -31.1922 -15.6750 -15.6588 -11.6920 -11.6517 -11.3400  -7.5883  -7.4772
    -7.3067  -7.1985  -7.0481  -6.7356  -6.7218  -1.5041  -1.4635  -1.2623
    -1.2459  -1.1050  -0.9810   3.1391   3.7196   4.3230   4.6737   4.6998
     4.7292   5.0331   5.2403   5.7925   5.8783   6.1052   6.3901   6.3962
     6.5021   6.5350   6.6662   7.3867   7.6859   7.9623   8.1530   8.3070
     8.3573   8.4542   8.5446   8.6391   8.6973   8.7114   8.8936   8.9979
     9.0326   9.1424   9.2691   9.5619  11.0437  11.1234  11.2228  12.8128
    13.7456  14.9824  15.5485  15.9834  16.1126  16.2954  16.4185  16.7151
    16.8388  17.3325  17.6200  17.9785  18.0659  18.1549  18.5437  19.0367
    19.7684  20.1027  20.3389  20.7919  20.9011  21.4382  21.5491  22.0181
    22.8326  23.1128  23.6339  23.6577  24.4253  24.6359  24.7026  25.0519
    25.1746  25.3107  25.3392  25.6152  25.7818  26.1524  26.8756  27.4377
    28.1733  28.5758  28.8572  29.1195

     occupation numbers 
     1.0000   1.0000   1.0000   1.0000   1.0000   1.0000   1.0000   1.0000
     1.0000   1.0000   1.0000   1.0000   1.0000   1.0000   1.0000   1.0000
     1.0000   1.0000   1.0000   1.0000   1.0000   1.0000   1.0000   1.0000
     1.0000   1.0000   1.0000   1.0000   1.0000   1.0000   1.0000   1.0000
     1.0000   1.0000   1.0000   1.0000   1.0000   1.0000   1.0000   1.0000
     1.0000   1.0000   1.0000   1.0000   1.0000   1.0000   1.0000   1.0000
     1.0000   1.0000   1.0000   0.9583   0.0000   0.0000   0.0000   0.0000
     0.0000   0.0000   0.0000   0.0000   0.0000   0.0000   0.0000   0.0000
     0.0000   0.0000   0.0000   0.0000   0.0000   0.0000   0.0000   0.0000
     0.0000   0.0000   0.0000   0.0000   0.0000   0.0000   0.0000   0.0000
     0.0000   0.0000   0.0000   0.0000   0.0000   0.0000   0.0000   0.0000
     0.0000   0.0000   0.0000   0.0000   0.0000   0.0000   0.0000   0.0000
     0.0000   0.0000   0.0000   0.0000

          k =-0.3750 0.3672 0.0813 (  9312 PWs)   bands (ev):

   -31.1922 -15.6753 -15.6585 -11.6920 -11.6517 -11.3401  -7.5895  -7.4785
    -7.2991  -7.2008  -7.0516  -6.7369  -6.7196  -1.5049  -1.4619  -1.2652
    -1.2430  -1.0999  -0.9875   3.1492   3.7024   4.3249   4.6751   4.7138
     4.7279   5.0376   5.2182   5.7810   5.9011   6.1235   6.3241   6.4149
     6.4937   6.5524   6.6446   7.5030   7.7008   7.9733   8.1611   8.2485
     8.3685   8.4560   8.5208   8.6349   8.6842   8.7166   8.8937   9.0003
     9.0052   9.1142   9.2264   9.5587  11.1157  11.1407  11.2239  12.8373
    13.7137  14.9959  15.5852  15.9237  15.9824  16.3110  16.3559  16.6840
    16.9735  17.3074  17.6578  17.8515  18.1866  18.3306  18.5792  18.9902
    19.7825  20.1578  20.3181  20.7870  20.9490  21.3350  21.5105  22.0658
    22.4942  23.3254  23.4422  23.7145  24.2293  24.6679  24.7616  24.8966
    25.0799  25.2795  25.3670  25.6865  25.7908  26.5769  27.2057  27.5767
    28.2375  28.5900  28.6838  29.0221

     occupation numbers 
     1.0000   1.0000   1.0000   1.0000   1.0000   1.0000   1.0000   1.0000
     1.0000   1.0000   1.0000   1.0000   1.0000   1.0000   1.0000   1.0000
     1.0000   1.0000   1.0000   1.0000   1.0000   1.0000   1.0000   1.0000
     1.0000   1.0000   1.0000   1.0000   1.0000   1.0000   1.0000   1.0000
     1.0000   1.0000   1.0000   1.0000   1.0000   1.0000   1.0000   1.0000
     1.0000   1.0000   1.0000   1.0000   1.0000   1.0000   1.0000   1.0000
     1.0000   1.0000   1.0000   0.9612   0.0000   0.0000   0.0000   0.0000
     0.0000   0.0000   0.0000   0.0000   0.0000   0.0000   0.0000   0.0000
     0.0000   0.0000   0.0000   0.0000   0.0000   0.0000   0.0000   0.0000
     0.0000   0.0000   0.0000   0.0000   0.0000   0.0000   0.0000   0.0000
     0.0000   0.0000   0.0000   0.0000   0.0000   0.0000   0.0000   0.0000
     0.0000   0.0000   0.0000   0.0000   0.0000   0.0000   0.0000   0.0000
     0.0000   0.0000   0.0000   0.0000

          k =-0.3750 0.3672-0.1626 (  9304 PWs)   bands (ev):

   -31.1922 -15.6755 -15.6582 -11.6920 -11.6517 -11.3401  -7.5907  -7.4798
    -7.2911  -7.2035  -7.0552  -6.7379  -6.7177  -1.5057  -1.4604  -1.2677
    -1.2404  -1.0942  -0.9946   3.1598   3.6847   4.3267   4.6761   4.7266
     4.7293   5.0420   5.1960   5.7701   5.9244   6.1482   6.2731   6.4185
     6.4714   6.5834   6.6212   7.6061   7.7687   7.9878   8.0746   8.2452
     8.3811   8.4579   8.5090   8.6352   8.6682   8.6796   8.8870   8.9813
     9.0086   9.0842   9.2060   9.5561  11.1240  11.2010  11.2410  12.8632
    13.6796  15.0058  15.6507  15.8130  15.9045  16.2966  16.3587  16.7318
    16.8317  17.5322  17.5533  17.9108  18.1441  18.5062  18.6336  18.9362
    19.7996  20.2574  20.2576  20.7689  21.0420  21.1658  21.6494  21.9488
    22.1716  23.3501  23.5552  23.7619  24.0941  24.5548  24.7799  24.8507
    24.9876  25.2967  25.3735  25.6454  25.8829  26.8164  27.5799  27.8609
    28.3628  28.4563  28.5682  29.1551

     occupation numbers 
     1.0000   1.0000   1.0000   1.0000   1.0000   1.0000   1.0000   1.0000
     1.0000   1.0000   1.0000   1.0000   1.0000   1.0000   1.0000   1.0000
     1.0000   1.0000   1.0000   1.0000   1.0000   1.0000   1.0000   1.0000
     1.0000   1.0000   1.0000   1.0000   1.0000   1.0000   1.0000   1.0000
     1.0000   1.0000   1.0000   1.0000   1.0000   1.0000   1.0000   1.0000
     1.0000   1.0000   1.0000   1.0000   1.0000   1.0000   1.0000   1.0000
     1.0000   1.0000   1.0000   0.9634   0.0000   0.0000   0.0000   0.0000
     0.0000   0.0000   0.0000   0.0000   0.0000   0.0000   0.0000   0.0000
     0.0000   0.0000   0.0000   0.0000   0.0000   0.0000   0.0000   0.0000
     0.0000   0.0000   0.0000   0.0000   0.0000   0.0000   0.0000   0.0000
     0.0000   0.0000   0.0000   0.0000   0.0000   0.0000   0.0000   0.0000
     0.0000   0.0000   0.0000   0.0000   0.0000   0.0000   0.0000   0.0000
     0.0000   0.0000   0.0000   0.0000

          k =-0.3750 0.3672-0.0813 (  9312 PWs)   bands (ev):

   -31.1922 -15.6753 -15.6585 -11.6920 -11.6517 -11.3401  -7.5895  -7.4785
    -7.2991  -7.2008  -7.0516  -6.7369  -6.7196  -1.5049  -1.4619  -1.2652
    -1.2430  -1.0999  -0.9875   3.1492   3.7024   4.3249   4.6751   4.7138
     4.7279   5.0376   5.2182   5.7810   5.9011   6.1235   6.3241   6.4149
     6.4937   6.5524   6.6446   7.5030   7.7008   7.9733   8.1611   8.2485
     8.3685   8.4560   8.5208   8.6349   8.6842   8.7166   8.8937   9.0003
     9.0052   9.1142   9.2264   9.5587  11.1157  11.1407  11.2239  12.8373
    13.7137  14.9959  15.5852  15.9237  15.9824  16.3110  16.3559  16.6840
    16.9735  17.3074  17.6578  17.8515  18.1866  18.3306  18.5792  18.9902
    19.7825  20.1578  20.3181  20.7870  20.9490  21.3350  21.5105  22.0658
    22.4942  23.3254  23.4422  23.7145  24.2293  24.6679  24.7616  24.8966
    25.0799  25.2795  25.3670  25.6865  25.7908  26.5769  27.2057  27.5767
    28.2375  28.5900  28.6838  29.0221

     occupation numbers 
     1.0000   1.0000   1.0000   1.0000   1.0000   1.0000   1.0000   1.0000
     1.0000   1.0000   1.0000   1.0000   1.0000   1.0000   1.0000   1.0000
     1.0000   1.0000   1.0000   1.0000   1.0000   1.0000   1.0000   1.0000
     1.0000   1.0000   1.0000   1.0000   1.0000   1.0000   1.0000   1.0000
     1.0000   1.0000   1.0000   1.0000   1.0000   1.0000   1.0000   1.0000
     1.0000   1.0000   1.0000   1.0000   1.0000   1.0000   1.0000   1.0000
     1.0000   1.0000   1.0000   0.9612   0.0000   0.0000   0.0000   0.0000
     0.0000   0.0000   0.0000   0.0000   0.0000   0.0000   0.0000   0.0000
     0.0000   0.0000   0.0000   0.0000   0.0000   0.0000   0.0000   0.0000
     0.0000   0.0000   0.0000   0.0000   0.0000   0.0000   0.0000   0.0000
     0.0000   0.0000   0.0000   0.0000   0.0000   0.0000   0.0000   0.0000
     0.0000   0.0000   0.0000   0.0000   0.0000   0.0000   0.0000   0.0000
     0.0000   0.0000   0.0000   0.0000

          k =-0.3750-0.4896 0.0000 (  9326 PWs)   bands (ev):

   -31.1905 -15.6621 -15.6461 -11.7191 -11.6852 -11.3077  -7.6369  -7.4579
    -7.1652  -7.0735  -6.9973  -6.8967  -6.7003  -1.5135  -1.4953  -1.4779
    -1.3109  -1.1642  -0.9747   2.9796   3.5858   4.0982   4.5589   4.6414
     4.6900   5.0284   5.2021   5.7949   5.9692   6.0312   6.3233   6.3704
     6.4533   6.4956   6.6792   7.3941   7.7134   8.1147   8.3126   8.4100
     8.4690   8.5915   8.6185   8.6799   8.6915   8.8527   8.9103   9.0394
     9.1220   9.1630   9.4372   9.5558  11.1490  11.3315  11.4121  12.6355
    13.6800  15.0061  15.2836  15.9847  16.1299  16.2144  16.5330  16.9145
    16.9187  17.4701  17.5030  17.5771  18.0854  19.0470  19.1401  19.4049
    19.9945  20.0022  20.4300  20.5803  21.2380  21.3955  22.0057  22.3664
    22.3779  22.9145  22.9897  23.1407  23.5594  23.9568  24.1137  24.7939
    25.2024  25.3081  25.3570  25.3862  25.8183  27.0527  27.2677  27.5569
    27.6149  29.0553  29.1922  29.2048

     occupation numbers 
     1.0000   1.0000   1.0000   1.0000   1.0000   1.0000   1.0000   1.0000
     1.0000   1.0000   1.0000   1.0000   1.0000   1.0000   1.0000   1.0000
     1.0000   1.0000   1.0000   1.0000   1.0000   1.0000   1.0000   1.0000
     1.0000   1.0000   1.0000   1.0000   1.0000   1.0000   1.0000   1.0000
     1.0000   1.0000   1.0000   1.0000   1.0000   1.0000   1.0000   1.0000
     1.0000   1.0000   1.0000   1.0000   1.0000   1.0000   1.0000   1.0000
     1.0000   1.0000   0.9988   0.9636   0.0000   0.0000   0.0000   0.0000
     0.0000   0.0000   0.0000   0.0000   0.0000   0.0000   0.0000   0.0000
     0.0000   0.0000   0.0000   0.0000   0.0000   0.0000   0.0000   0.0000
     0.0000   0.0000   0.0000   0.0000   0.0000   0.0000   0.0000   0.0000
     0.0000   0.0000   0.0000   0.0000   0.0000   0.0000   0.0000   0.0000
     0.0000   0.0000   0.0000   0.0000   0.0000   0.0000   0.0000   0.0000
     0.0000   0.0000   0.0000   0.0000

          k =-0.3750-0.4896 0.0813 (  9310 PWs)   bands (ev):

   -31.1905 -15.6624 -15.6458 -11.7190 -11.6852 -11.3077  -7.6374  -7.4582
    -7.1621  -7.0715  -6.9989  -6.9018  -6.6978  -1.5133  -1.4969  -1.4782
    -1.3094  -1.1556  -0.9841   2.9907   3.5659   4.1017   4.5750   4.6416
     4.6898   5.0326   5.1791   5.7769   6.0182   6.0324   6.2754   6.3725
     6.4638   6.4792   6.6689   7.5154   7.7383   8.1234   8.3306   8.3701
     8.4143   8.5894   8.6242   8.6840   8.6971   8.8038   8.9292   8.9602
     9.1291   9.1422   9.4348   9.5539  11.2614  11.3335  11.4105  12.6450
    13.6189  15.0770  15.3645  15.8971  16.2123  16.2290  16.4977  16.5729
    16.5896  17.5731  17.6561  17.9596  18.1968  18.9124  19.2013  19.4171
    19.9659  20.0966  20.5233  20.5729  21.1797  21.2159  21.9968  22.2692
    22.6511  22.7057  22.9709  23.0090  23.2446  24.1046  24.2245  24.6443
    25.0371  25.2965  25.3238  25.5571  26.1221  27.0495  27.3538  27.8615
    27.8996  28.9038  29.2285  29.2306

     occupation numbers 
     1.0000   1.0000   1.0000   1.0000   1.0000   1.0000   1.0000   1.0000
     1.0000   1.0000   1.0000   1.0000   1.0000   1.0000   1.0000   1.0000
     1.0000   1.0000   1.0000   1.0000   1.0000   1.0000   1.0000   1.0000
     1.0000   1.0000   1.0000   1.0000   1.0000   1.0000   1.0000   1.0000
     1.0000   1.0000   1.0000   1.0000   1.0000   1.0000   1.0000   1.0000
     1.0000   1.0000   1.0000   1.0000   1.0000   1.0000   1.0000   1.0000
     1.0000   1.0000   0.9989   0.9652   0.0000   0.0000   0.0000   0.0000
     0.0000   0.0000   0.0000   0.0000   0.0000   0.0000   0.0000   0.0000
     0.0000   0.0000   0.0000   0.0000   0.0000   0.0000   0.0000   0.0000
     0.0000   0.0000   0.0000   0.0000   0.0000   0.0000   0.0000   0.0000
     0.0000   0.0000   0.0000   0.0000   0.0000   0.0000   0.0000   0.0000
     0.0000   0.0000   0.0000   0.0000   0.0000   0.0000   0.0000   0.0000
     0.0000   0.0000   0.0000   0.0000

          k =-0.3750-0.4896-0.1626 (  9300 PWs)   bands (ev):

   -31.1905 -15.6626 -15.6455 -11.7190 -11.6852 -11.3077  -7.6379  -7.4586
    -7.1588  -7.0694  -7.0006  -6.9069  -6.6955  -1.5130  -1.4985  -1.4785
    -1.3079  -1.1460  -0.9945   3.0024   3.5455   4.1050   4.5921   4.6418
     4.6896   5.0367   5.1559   5.7618   6.0336   6.0791   6.2192   6.3790
     6.4297   6.4979   6.6623   7.6137   7.8466   8.1324   8.1720   8.4188
     8.4237   8.5852   8.6337   8.6375   8.6731   8.7696   8.8639   8.9997
     9.1144   9.1361   9.4329   9.5519  11.3341  11.3717  11.4090  12.6552
    13.5544  15.1666  15.4814  15.8218  16.1313  16.2450  16.3310  16.4502
    16.5389  17.5583  17.6184  18.4403  18.5259  18.5333  19.2468  19.4323
    19.9644  20.1666  20.5848  20.6389  21.0302  21.0860  22.1414  22.1780
    22.2700  22.8070  22.9746  23.0381  23.0842  24.1041  24.4890  24.5036
    24.8640  25.2297  25.3387  25.5006  26.4806  27.0719  27.3466  28.2575
    28.6443  28.8645  28.9064  28.9497

     occupation numbers 
     1.0000   1.0000   1.0000   1.0000   1.0000   1.0000   1.0000   1.0000
     1.0000   1.0000   1.0000   1.0000   1.0000   1.0000   1.0000   1.0000
     1.0000   1.0000   1.0000   1.0000   1.0000   1.0000   1.0000   1.0000
     1.0000   1.0000   1.0000   1.0000   1.0000   1.0000   1.0000   1.0000
     1.0000   1.0000   1.0000   1.0000   1.0000   1.0000   1.0000   1.0000
     1.0000   1.0000   1.0000   1.0000   1.0000   1.0000   1.0000   1.0000
     1.0000   1.0000   0.9989   0.9667   0.0000   0.0000   0.0000   0.0000
     0.0000   0.0000   0.0000   0.0000   0.0000   0.0000   0.0000   0.0000
     0.0000   0.0000   0.0000   0.0000   0.0000   0.0000   0.0000   0.0000
     0.0000   0.0000   0.0000   0.0000   0.0000   0.0000   0.0000   0.0000
     0.0000   0.0000   0.0000   0.0000   0.0000   0.0000   0.0000   0.0000
     0.0000   0.0000   0.0000   0.0000   0.0000   0.0000   0.0000   0.0000
     0.0000   0.0000   0.0000   0.0000

          k =-0.3750-0.4896-0.0813 (  9310 PWs)   bands (ev):

   -31.1905 -15.6624 -15.6458 -11.7190 -11.6852 -11.3077  -7.6374  -7.4582
    -7.1621  -7.0715  -6.9989  -6.9018  -6.6978  -1.5133  -1.4969  -1.4782
    -1.3094  -1.1556  -0.9841   2.9907   3.5659   4.1017   4.5750   4.6416
     4.6898   5.0326   5.1791   5.7769   6.0182   6.0324   6.2754   6.3725
     6.4638   6.4792   6.6689   7.5154   7.7383   8.1234   8.3306   8.3701
     8.4143   8.5894   8.6242   8.6840   8.6971   8.8038   8.9292   8.9602
     9.1291   9.1422   9.4348   9.5539  11.2614  11.3335  11.4105  12.6450
    13.6189  15.0770  15.3645  15.8971  16.2123  16.2290  16.4977  16.5729
    16.5896  17.5731  17.6561  17.9596  18.1968  18.9124  19.2013  19.4171
    19.9659  20.0966  20.5233  20.5729  21.1797  21.2159  21.9968  22.2692
    22.6511  22.7057  22.9709  23.0090  23.2446  24.1046  24.2245  24.6443
    25.0371  25.2965  25.3238  25.5571  26.1221  27.0495  27.3538  27.8615
    27.8996  28.9038  29.2285  29.2306

     occupation numbers 
     1.0000   1.0000   1.0000   1.0000   1.0000   1.0000   1.0000   1.0000
     1.0000   1.0000   1.0000   1.0000   1.0000   1.0000   1.0000   1.0000
     1.0000   1.0000   1.0000   1.0000   1.0000   1.0000   1.0000   1.0000
     1.0000   1.0000   1.0000   1.0000   1.0000   1.0000   1.0000   1.0000
     1.0000   1.0000   1.0000   1.0000   1.0000   1.0000   1.0000   1.0000
     1.0000   1.0000   1.0000   1.0000   1.0000   1.0000   1.0000   1.0000
     1.0000   1.0000   0.9989   0.9652   0.0000   0.0000   0.0000   0.0000
     0.0000   0.0000   0.0000   0.0000   0.0000   0.0000   0.0000   0.0000
     0.0000   0.0000   0.0000   0.0000   0.0000   0.0000   0.0000   0.0000
     0.0000   0.0000   0.0000   0.0000   0.0000   0.0000   0.0000   0.0000
     0.0000   0.0000   0.0000   0.0000   0.0000   0.0000   0.0000   0.0000
     0.0000   0.0000   0.0000   0.0000   0.0000   0.0000   0.0000   0.0000
     0.0000   0.0000   0.0000   0.0000

          k =-0.3750-0.3672 0.0000 (  9307 PWs)   bands (ev):

   -31.1922 -15.6750 -15.6588 -11.6920 -11.6517 -11.3400  -7.5883  -7.4772
    -7.3067  -7.1985  -7.0481  -6.7356  -6.7218  -1.5041  -1.4635  -1.2623
    -1.2459  -1.1050  -0.9810   3.1391   3.7196   4.3230   4.6737   4.6998
     4.7292   5.0331   5.2403   5.7925   5.8783   6.1052   6.3901   6.3962
     6.5021   6.5350   6.6662   7.3867   7.6859   7.9623   8.1530   8.3070
     8.3573   8.4542   8.5446   8.6391   8.6973   8.7114   8.8936   8.9979
     9.0326   9.1424   9.2691   9.5619  11.0437  11.1234  11.2228  12.8128
    13.7456  14.9824  15.5485  15.9834  16.1126  16.2954  16.4185  16.7151
    16.8388  17.3325  17.6200  17.9785  18.0659  18.1549  18.5437  19.0367
    19.7684  20.1027  20.3389  20.7919  20.9011  21.4382  21.5491  22.0181
    22.8326  23.1128  23.6339  23.6577  24.4253  24.6359  24.7026  25.0519
    25.1746  25.3107  25.3392  25.6152  25.7818  26.1524  26.8756  27.4377
    28.1733  28.5758  28.8572  29.1195

     occupation numbers 
     1.0000   1.0000   1.0000   1.0000   1.0000   1.0000   1.0000   1.0000
     1.0000   1.0000   1.0000   1.0000   1.0000   1.0000   1.0000   1.0000
     1.0000   1.0000   1.0000   1.0000   1.0000   1.0000   1.0000   1.0000
     1.0000   1.0000   1.0000   1.0000   1.0000   1.0000   1.0000   1.0000
     1.0000   1.0000   1.0000   1.0000   1.0000   1.0000   1.0000   1.0000
     1.0000   1.0000   1.0000   1.0000   1.0000   1.0000   1.0000   1.0000
     1.0000   1.0000   1.0000   0.9583   0.0000   0.0000   0.0000   0.0000
     0.0000   0.0000   0.0000   0.0000   0.0000   0.0000   0.0000   0.0000
     0.0000   0.0000   0.0000   0.0000   0.0000   0.0000   0.0000   0.0000
     0.0000   0.0000   0.0000   0.0000   0.0000   0.0000   0.0000   0.0000
     0.0000   0.0000   0.0000   0.0000   0.0000   0.0000   0.0000   0.0000
     0.0000   0.0000   0.0000   0.0000   0.0000   0.0000   0.0000   0.0000
     0.0000   0.0000   0.0000   0.0000

          k =-0.3750-0.3672 0.0813 (  9312 PWs)   bands (ev):

   -31.1922 -15.6753 -15.6585 -11.6920 -11.6517 -11.3401  -7.5895  -7.4785
    -7.2991  -7.2008  -7.0516  -6.7369  -6.7196  -1.5049  -1.4619  -1.2652
    -1.2430  -1.0999  -0.9875   3.1492   3.7024   4.3249   4.6751   4.7138
     4.7279   5.0376   5.2182   5.7810   5.9011   6.1235   6.3241   6.4149
     6.4937   6.5524   6.6446   7.5030   7.7008   7.9733   8.1611   8.2485
     8.3685   8.4560   8.5208   8.6349   8.6842   8.7166   8.8937   9.0003
     9.0052   9.1142   9.2264   9.5587  11.1157  11.1407  11.2239  12.8373
    13.7137  14.9959  15.5852  15.9237  15.9824  16.3110  16.3559  16.6840
    16.9735  17.3074  17.6578  17.8515  18.1866  18.3306  18.5792  18.9902
    19.7825  20.1578  20.3181  20.7870  20.9490  21.3350  21.5105  22.0658
    22.4942  23.3254  23.4422  23.7145  24.2293  24.6679  24.7616  24.8966
    25.0799  25.2795  25.3670  25.6865  25.7908  26.5769  27.2057  27.5767
    28.2375  28.5900  28.6838  29.0221

     occupation numbers 
     1.0000   1.0000   1.0000   1.0000   1.0000   1.0000   1.0000   1.0000
     1.0000   1.0000   1.0000   1.0000   1.0000   1.0000   1.0000   1.0000
     1.0000   1.0000   1.0000   1.0000   1.0000   1.0000   1.0000   1.0000
     1.0000   1.0000   1.0000   1.0000   1.0000   1.0000   1.0000   1.0000
     1.0000   1.0000   1.0000   1.0000   1.0000   1.0000   1.0000   1.0000
     1.0000   1.0000   1.0000   1.0000   1.0000   1.0000   1.0000   1.0000
     1.0000   1.0000   1.0000   0.9612   0.0000   0.0000   0.0000   0.0000
     0.0000   0.0000   0.0000   0.0000   0.0000   0.0000   0.0000   0.0000
     0.0000   0.0000   0.0000   0.0000   0.0000   0.0000   0.0000   0.0000
     0.0000   0.0000   0.0000   0.0000   0.0000   0.0000   0.0000   0.0000
     0.0000   0.0000   0.0000   0.0000   0.0000   0.0000   0.0000   0.0000
     0.0000   0.0000   0.0000   0.0000   0.0000   0.0000   0.0000   0.0000
     0.0000   0.0000   0.0000   0.0000

          k =-0.3750-0.3672-0.1626 (  9304 PWs)   bands (ev):

   -31.1922 -15.6755 -15.6582 -11.6920 -11.6517 -11.3401  -7.5907  -7.4798
    -7.2911  -7.2035  -7.0552  -6.7379  -6.7177  -1.5057  -1.4604  -1.2677
    -1.2404  -1.0942  -0.9946   3.1598   3.6847   4.3267   4.6761   4.7266
     4.7293   5.0420   5.1960   5.7701   5.9244   6.1482   6.2731   6.4185
     6.4714   6.5834   6.6212   7.6061   7.7687   7.9878   8.0746   8.2452
     8.3811   8.4579   8.5090   8.6352   8.6682   8.6796   8.8870   8.9813
     9.0086   9.0842   9.2060   9.5561  11.1240  11.2010  11.2410  12.8632
    13.6796  15.0058  15.6507  15.8130  15.9045  16.2966  16.3587  16.7318
    16.8317  17.5322  17.5533  17.9108  18.1441  18.5062  18.6336  18.9362
    19.7996  20.2574  20.2576  20.7689  21.0420  21.1658  21.6494  21.9488
    22.1716  23.3501  23.5552  23.7619  24.0941  24.5548  24.7799  24.8507
    24.9876  25.2967  25.3735  25.6454  25.8829  26.8164  27.5799  27.8609
    28.3628  28.4563  28.5682  29.1551

     occupation numbers 
     1.0000   1.0000   1.0000   1.0000   1.0000   1.0000   1.0000   1.0000
     1.0000   1.0000   1.0000   1.0000   1.0000   1.0000   1.0000   1.0000
     1.0000   1.0000   1.0000   1.0000   1.0000   1.0000   1.0000   1.0000
     1.0000   1.0000   1.0000   1.0000   1.0000   1.0000   1.0000   1.0000
     1.0000   1.0000   1.0000   1.0000   1.0000   1.0000   1.0000   1.0000
     1.0000   1.0000   1.0000   1.0000   1.0000   1.0000   1.0000   1.0000
     1.0000   1.0000   1.0000   0.9634   0.0000   0.0000   0.0000   0.0000
     0.0000   0.0000   0.0000   0.0000   0.0000   0.0000   0.0000   0.0000
     0.0000   0.0000   0.0000   0.0000   0.0000   0.0000   0.0000   0.0000
     0.0000   0.0000   0.0000   0.0000   0.0000   0.0000   0.0000   0.0000
     0.0000   0.0000   0.0000   0.0000   0.0000   0.0000   0.0000   0.0000
     0.0000   0.0000   0.0000   0.0000   0.0000   0.0000   0.0000   0.0000
     0.0000   0.0000   0.0000   0.0000

          k =-0.3750-0.3672-0.0813 (  9312 PWs)   bands (ev):

   -31.1922 -15.6753 -15.6585 -11.6920 -11.6517 -11.3401  -7.5895  -7.4785
    -7.2991  -7.2008  -7.0516  -6.7369  -6.7196  -1.5049  -1.4619  -1.2652
    -1.2430  -1.0999  -0.9875   3.1492   3.7024   4.3249   4.6751   4.7138
     4.7279   5.0376   5.2182   5.7810   5.9011   6.1235   6.3241   6.4149
     6.4937   6.5524   6.6446   7.5030   7.7008   7.9733   8.1611   8.2485
     8.3685   8.4560   8.5208   8.6349   8.6842   8.7166   8.8937   9.0003
     9.0052   9.1142   9.2264   9.5587  11.1157  11.1407  11.2239  12.8373
    13.7137  14.9959  15.5852  15.9237  15.9824  16.3110  16.3559  16.6840
    16.9735  17.3074  17.6578  17.8515  18.1866  18.3306  18.5792  18.9902
    19.7825  20.1578  20.3181  20.7870  20.9490  21.3350  21.5105  22.0658
    22.4942  23.3254  23.4422  23.7145  24.2293  24.6679  24.7616  24.8966
    25.0799  25.2795  25.3670  25.6865  25.7908  26.5769  27.2057  27.5767
    28.2375  28.5900  28.6838  29.0221

     occupation numbers 
     1.0000   1.0000   1.0000   1.0000   1.0000   1.0000   1.0000   1.0000
     1.0000   1.0000   1.0000   1.0000   1.0000   1.0000   1.0000   1.0000
     1.0000   1.0000   1.0000   1.0000   1.0000   1.0000   1.0000   1.0000
     1.0000   1.0000   1.0000   1.0000   1.0000   1.0000   1.0000   1.0000
     1.0000   1.0000   1.0000   1.0000   1.0000   1.0000   1.0000   1.0000
     1.0000   1.0000   1.0000   1.0000   1.0000   1.0000   1.0000   1.0000
     1.0000   1.0000   1.0000   0.9612   0.0000   0.0000   0.0000   0.0000
     0.0000   0.0000   0.0000   0.0000   0.0000   0.0000   0.0000   0.0000
     0.0000   0.0000   0.0000   0.0000   0.0000   0.0000   0.0000   0.0000
     0.0000   0.0000   0.0000   0.0000   0.0000   0.0000   0.0000   0.0000
     0.0000   0.0000   0.0000   0.0000   0.0000   0.0000   0.0000   0.0000
     0.0000   0.0000   0.0000   0.0000   0.0000   0.0000   0.0000   0.0000
     0.0000   0.0000   0.0000   0.0000

          k =-0.3750-0.2448 0.0000 (  9294 PWs)   bands (ev):

   -31.1962 -15.7057 -15.6892 -11.7055 -11.4810 -11.4147  -7.5980  -7.5512
    -7.4424  -7.3972  -7.0840  -6.7737  -6.5987  -1.3277  -1.3033  -1.1617
    -1.0116  -0.9268  -0.8799   3.5258   3.9838   4.8002   4.9112   4.9256
     5.0463   5.1051   5.3758   5.6747   5.8136   6.2584   6.3175   6.5215
     6.5748   6.6384   6.8377   7.3402   7.5850   7.6235   7.8643   7.9346
     7.9997   8.1232   8.3969   8.5259   8.6198   8.6777   8.7328   8.7826
     8.8427   8.9423   9.2971   9.3856  10.4750  10.6305  10.6701  13.2737
    14.0183  14.8323  15.6380  16.0652  16.0761  16.3044  16.6930  16.7357
    16.7525  17.1359  17.4094  17.4893  17.5665  17.8651  18.1760  19.1469
    19.2530  19.9337  20.2583  20.6179  20.7080  20.9159  21.8996  22.3931
    22.9242  23.3527  23.6787  24.1183  24.2295  24.9543  24.9787  25.0593
    25.1247  25.4431  25.8778  26.0656  26.3005  27.1910  27.6331  27.7063
    28.1723  28.3529  28.5468  28.7646

     occupation numbers 
     1.0000   1.0000   1.0000   1.0000   1.0000   1.0000   1.0000   1.0000
     1.0000   1.0000   1.0000   1.0000   1.0000   1.0000   1.0000   1.0000
     1.0000   1.0000   1.0000   1.0000   1.0000   1.0000   1.0000   1.0000
     1.0000   1.0000   1.0000   1.0000   1.0000   1.0000   1.0000   1.0000
     1.0000   1.0000   1.0000   1.0000   1.0000   1.0000   1.0000   1.0000
     1.0000   1.0000   1.0000   1.0000   1.0000   1.0000   1.0000   1.0000
     1.0000   1.0000   1.0000   0.9998   0.0000   0.0000   0.0000   0.0000
     0.0000   0.0000   0.0000   0.0000   0.0000   0.0000   0.0000   0.0000
     0.0000   0.0000   0.0000   0.0000   0.0000   0.0000   0.0000   0.0000
     0.0000   0.0000   0.0000   0.0000   0.0000   0.0000   0.0000   0.0000
     0.0000   0.0000   0.0000   0.0000   0.0000   0.0000   0.0000   0.0000
     0.0000   0.0000   0.0000   0.0000   0.0000   0.0000   0.0000   0.0000
     0.0000   0.0000   0.0000   0.0000

          k =-0.3750-0.2448 0.0813 (  9303 PWs)   bands (ev):

   -31.1962 -15.7060 -15.6889 -11.7055 -11.4810 -11.4147  -7.6097  -7.5445
    -7.4325  -7.3949  -7.0958  -6.7683  -6.5997  -1.3261  -1.3046  -1.1581
    -1.0166  -0.9292  -0.8769   3.5339   3.9726   4.8048   4.8912   4.9292
     5.0599   5.1142   5.3598   5.6819   5.8215   6.2625   6.3298   6.4843
     6.5637   6.6207   6.8271   7.4436   7.6007   7.6271   7.8368   7.9473
     8.0015   8.1595   8.3592   8.5101   8.6097   8.6517   8.7228   8.7974
     8.8841   8.9415   9.2320   9.3434  10.4880  10.6127  10.7307  13.3052
    14.0197  14.8119  15.6641  16.0312  16.0843  16.2191  16.4822  16.7831
    16.9627  17.0929  17.3924  17.5123  17.5903  17.9238  18.2734  19.0599
    19.2311  19.9703  20.3267  20.5520  20.7671  21.0386  21.8999  22.4292
    22.4431  23.2095  23.7685  24.0014  24.1616  24.6228  25.0043  25.1273
    25.2525  25.8320  26.0438  26.2637  26.5325  27.2781  27.4764  27.7794
    28.0533  28.3586  28.5836  28.8686

     occupation numbers 
     1.0000   1.0000   1.0000   1.0000   1.0000   1.0000   1.0000   1.0000
     1.0000   1.0000   1.0000   1.0000   1.0000   1.0000   1.0000   1.0000
     1.0000   1.0000   1.0000   1.0000   1.0000   1.0000   1.0000   1.0000
     1.0000   1.0000   1.0000   1.0000   1.0000   1.0000   1.0000   1.0000
     1.0000   1.0000   1.0000   1.0000   1.0000   1.0000   1.0000   1.0000
     1.0000   1.0000   1.0000   1.0000   1.0000   1.0000   1.0000   1.0000
     1.0000   1.0000   1.0000   1.0000   0.0000   0.0000   0.0000   0.0000
     0.0000   0.0000   0.0000   0.0000   0.0000   0.0000   0.0000   0.0000
     0.0000   0.0000   0.0000   0.0000   0.0000   0.0000   0.0000   0.0000
     0.0000   0.0000   0.0000   0.0000   0.0000   0.0000   0.0000   0.0000
     0.0000   0.0000   0.0000   0.0000   0.0000   0.0000   0.0000   0.0000
     0.0000   0.0000   0.0000   0.0000   0.0000   0.0000   0.0000   0.0000
     0.0000   0.0000   0.0000   0.0000

          k =-0.3750-0.2448-0.1626 (  9284 PWs)   bands (ev):

   -31.1962 -15.7063 -15.6886 -11.7055 -11.4810 -11.4147  -7.6185  -7.5403
    -7.4239  -7.3907  -7.1079  -6.7630  -6.6008  -1.3245  -1.3058  -1.1543
    -1.0216  -0.9315  -0.8741   3.5423   3.9609   4.8109   4.8738   4.9309
     5.0722   5.1231   5.3443   5.6855   5.8333   6.2665   6.3620   6.4188
     6.5570   6.6068   6.8245   7.5762   7.5817   7.6625   7.7666   7.9674
     8.0043   8.2421   8.2847   8.4989   8.5488   8.6860   8.6994   8.8080
     8.9215   8.9689   9.1112   9.3312  10.4991  10.6039  10.7793  13.3390
    14.0189  14.7866  15.7930  15.8839  16.0870  16.1648  16.3599  16.8200
    17.0567  17.0960  17.3855  17.5816  17.5920  17.9000  18.4232  18.9540
    19.2094  20.0059  20.3738  20.5312  20.7776  21.4386  21.7420  21.9052
    22.4790  23.1431  23.5960  23.8741  24.2409  24.7688  25.0495  25.1619
    25.2327  25.7783  26.1716  26.2706  27.0219  27.4490  27.4715  27.8944
    27.9712  28.2497  28.6707  29.0337

     occupation numbers 
     1.0000   1.0000   1.0000   1.0000   1.0000   1.0000   1.0000   1.0000
     1.0000   1.0000   1.0000   1.0000   1.0000   1.0000   1.0000   1.0000
     1.0000   1.0000   1.0000   1.0000   1.0000   1.0000   1.0000   1.0000
     1.0000   1.0000   1.0000   1.0000   1.0000   1.0000   1.0000   1.0000
     1.0000   1.0000   1.0000   1.0000   1.0000   1.0000   1.0000   1.0000
     1.0000   1.0000   1.0000   1.0000   1.0000   1.0000   1.0000   1.0000
     1.0000   1.0000   1.0000   1.0000   0.0000   0.0000   0.0000   0.0000
     0.0000   0.0000   0.0000   0.0000   0.0000   0.0000   0.0000   0.0000
     0.0000   0.0000   0.0000   0.0000   0.0000   0.0000   0.0000   0.0000
     0.0000   0.0000   0.0000   0.0000   0.0000   0.0000   0.0000   0.0000
     0.0000   0.0000   0.0000   0.0000   0.0000   0.0000   0.0000   0.0000
     0.0000   0.0000   0.0000   0.0000   0.0000   0.0000   0.0000   0.0000
     0.0000   0.0000   0.0000   0.0000

          k =-0.3750-0.2448-0.0813 (  9303 PWs)   bands (ev):

   -31.1962 -15.7060 -15.6889 -11.7055 -11.4810 -11.4147  -7.6097  -7.5445
    -7.4325  -7.3949  -7.0958  -6.7683  -6.5997  -1.3261  -1.3046  -1.1581
    -1.0166  -0.9292  -0.8769   3.5339   3.9726   4.8048   4.8912   4.9292
     5.0599   5.1142   5.3598   5.6819   5.8215   6.2625   6.3298   6.4843
     6.5637   6.6207   6.8271   7.4436   7.6007   7.6271   7.8368   7.9473
     8.0015   8.1595   8.3592   8.5101   8.6097   8.6517   8.7228   8.7974
     8.8841   8.9415   9.2320   9.3434  10.4880  10.6127  10.7307  13.3052
    14.0197  14.8119  15.6641  16.0312  16.0843  16.2191  16.4822  16.7831
    16.9627  17.0929  17.3924  17.5123  17.5903  17.9238  18.2734  19.0599
    19.2311  19.9703  20.3267  20.5520  20.7671  21.0386  21.8999  22.4292
    22.4431  23.2095  23.7685  24.0014  24.1616  24.6228  25.0043  25.1273
    25.2525  25.8320  26.0438  26.2637  26.5325  27.2781  27.4764  27.7794
    28.0533  28.3586  28.5836  28.8686

     occupation numbers 
     1.0000   1.0000   1.0000   1.0000   1.0000   1.0000   1.0000   1.0000
     1.0000   1.0000   1.0000   1.0000   1.0000   1.0000   1.0000   1.0000
     1.0000   1.0000   1.0000   1.0000   1.0000   1.0000   1.0000   1.0000
     1.0000   1.0000   1.0000   1.0000   1.0000   1.0000   1.0000   1.0000
     1.0000   1.0000   1.0000   1.0000   1.0000   1.0000   1.0000   1.0000
     1.0000   1.0000   1.0000   1.0000   1.0000   1.0000   1.0000   1.0000
     1.0000   1.0000   1.0000   1.0000   0.0000   0.0000   0.0000   0.0000
     0.0000   0.0000   0.0000   0.0000   0.0000   0.0000   0.0000   0.0000
     0.0000   0.0000   0.0000   0.0000   0.0000   0.0000   0.0000   0.0000
     0.0000   0.0000   0.0000   0.0000   0.0000   0.0000   0.0000   0.0000
     0.0000   0.0000   0.0000   0.0000   0.0000   0.0000   0.0000   0.0000
     0.0000   0.0000   0.0000   0.0000   0.0000   0.0000   0.0000   0.0000
     0.0000   0.0000   0.0000   0.0000

          k =-0.3750-0.1224 0.0000 (  9289 PWs)   bands (ev):

   -31.2002 -15.7359 -15.7193 -11.7194 -11.4849 -11.2897  -7.7915  -7.6674
    -7.6210  -7.2584  -7.1399  -6.8251  -6.5300  -1.2953  -1.0265  -0.9797
    -0.9095  -0.6954  -0.6801   3.8785   4.1333   4.9883   5.1673   5.1861
     5.4259   5.6732   5.7067   5.7149   5.9235   6.1247   6.3188   6.4061
     6.7272   6.8426   7.1109   7.1763   7.3307   7.4538   7.5425   7.6114
     7.7007   7.8752   8.1659   8.3029   8.4240   8.4625   8.6898   8.7781
     8.7979   8.8490   9.0459   9.3407   9.5768   9.8955   9.9555  13.7192
    14.4526  14.6329  15.5765  15.8987  16.0654  16.3123  16.4986  16.7592
    16.7787  17.0897  17.1863  17.4693  17.6366  18.0279  18.4151  18.6176
    19.0479  19.4257  19.8971  20.6406  20.8054  21.1226  21.9095  22.2743
    22.8481  23.3366  23.4601  23.7155  24.5160  24.8232  24.8351  24.8772
    25.5857  26.0150  26.3024  26.4097  26.6735  27.3018  27.6758  27.8822
    27.9192  28.2503  28.8761  28.8912

     occupation numbers 
     1.0000   1.0000   1.0000   1.0000   1.0000   1.0000   1.0000   1.0000
     1.0000   1.0000   1.0000   1.0000   1.0000   1.0000   1.0000   1.0000
     1.0000   1.0000   1.0000   1.0000   1.0000   1.0000   1.0000   1.0000
     1.0000   1.0000   1.0000   1.0000   1.0000   1.0000   1.0000   1.0000
     1.0000   1.0000   1.0000   1.0000   1.0000   1.0000   1.0000   1.0000
     1.0000   1.0000   1.0000   1.0000   1.0000   1.0000   1.0000   1.0000
     1.0000   1.0000   1.0000   1.0000   0.9426   0.0413   0.0091   0.0000
     0.0000   0.0000   0.0000   0.0000   0.0000   0.0000   0.0000   0.0000
     0.0000   0.0000   0.0000   0.0000   0.0000   0.0000   0.0000   0.0000
     0.0000   0.0000   0.0000   0.0000   0.0000   0.0000   0.0000   0.0000
     0.0000   0.0000   0.0000   0.0000   0.0000   0.0000   0.0000   0.0000
     0.0000   0.0000   0.0000   0.0000   0.0000   0.0000   0.0000   0.0000
     0.0000   0.0000   0.0000   0.0000

          k =-0.3750-0.1224 0.0813 (  9281 PWs)   bands (ev):

   -31.2002 -15.7363 -15.7189 -11.7194 -11.4849 -11.2897  -7.7901  -7.7007
    -7.5778  -7.2582  -7.1607  -6.8142  -6.5317  -1.2914  -1.0297  -0.9835
    -0.9070  -0.6970  -0.6785   3.8847   4.1271   4.9944   5.1376   5.1978
     5.4366   5.6690   5.7049   5.7324   5.9168   6.1657   6.3186   6.4004
     6.6021   6.8606   7.1022   7.2009   7.3885   7.4633   7.5531   7.5933
     7.7219   7.9296   8.1584   8.2676   8.4176   8.4341   8.7120   8.7752
     8.7942   8.8794   9.0328   9.2641   9.6011   9.8080  10.0482  13.7382
    14.4314  14.6483  15.6431  15.8904  16.0664  16.2520  16.4575  16.6867
    16.8405  16.9819  17.2039  17.5146  17.6437  18.1573  18.4260  18.6630
    19.0257  19.4935  19.9077  20.6179  20.7325  21.1279  22.0207  22.1767
    22.7296  23.2807  23.3959  23.6718  23.8437  24.6784  25.0179  25.5553
    25.8791  26.0962  26.3240  26.6172  26.6822  27.2919  27.5479  27.8528
    28.0216  28.2539  28.6483  28.7541

     occupation numbers 
     1.0000   1.0000   1.0000   1.0000   1.0000   1.0000   1.0000   1.0000
     1.0000   1.0000   1.0000   1.0000   1.0000   1.0000   1.0000   1.0000
     1.0000   1.0000   1.0000   1.0000   1.0000   1.0000   1.0000   1.0000
     1.0000   1.0000   1.0000   1.0000   1.0000   1.0000   1.0000   1.0000
     1.0000   1.0000   1.0000   1.0000   1.0000   1.0000   1.0000   1.0000
     1.0000   1.0000   1.0000   1.0000   1.0000   1.0000   1.0000   1.0000
     1.0000   1.0000   1.0000   1.0000   0.9073   0.2041   0.0004   0.0000
     0.0000   0.0000   0.0000   0.0000   0.0000   0.0000   0.0000   0.0000
     0.0000   0.0000   0.0000   0.0000   0.0000   0.0000   0.0000   0.0000
     0.0000   0.0000   0.0000   0.0000   0.0000   0.0000   0.0000   0.0000
     0.0000   0.0000   0.0000   0.0000   0.0000   0.0000   0.0000   0.0000
     0.0000   0.0000   0.0000   0.0000   0.0000   0.0000   0.0000   0.0000
     0.0000   0.0000   0.0000   0.0000

          k =-0.3750-0.1224-0.1626 (  9284 PWs)   bands (ev):

   -31.2002 -15.7367 -15.7185 -11.7194 -11.4849 -11.2897  -7.7884  -7.7195
    -7.5480  -7.2577  -7.1822  -6.8040  -6.5335  -1.2873  -1.0334  -0.9868
    -0.9048  -0.6984  -0.6770   3.8912   4.1206   5.0020   5.1151   5.2012
     5.4476   5.6601   5.7189   5.7395   5.9056   6.2599   6.3275   6.3417
     6.4937   6.8667   7.1042   7.2109   7.4260   7.4947   7.5464   7.5820
     7.7498   8.0085   8.1300   8.2269   8.3769   8.4394   8.7310   8.7723
     8.7906   8.9466   9.0015   9.1719   9.6283   9.7601  10.0962  13.7584
    14.4077  14.6652  15.7317  15.9284  15.9810  16.2204  16.3943  16.6446
    16.8603  16.9213  17.2916  17.4864  17.6226  18.2321  18.5377  18.6860
    18.9928  19.5838  19.8921  20.5503  20.7416  21.1298  22.0816  22.1884
    22.4410  22.9981  23.3377  23.8016  23.8513  24.6401  25.0835  25.5786
    25.9078  25.9888  26.6701  26.6984  27.1894  27.2906  27.5102  27.9274
    28.0127  28.2078  28.5060  28.5403

     occupation numbers 
     1.0000   1.0000   1.0000   1.0000   1.0000   1.0000   1.0000   1.0000
     1.0000   1.0000   1.0000   1.0000   1.0000   1.0000   1.0000   1.0000
     1.0000   1.0000   1.0000   1.0000   1.0000   1.0000   1.0000   1.0000
     1.0000   1.0000   1.0000   1.0000   1.0000   1.0000   1.0000   1.0000
     1.0000   1.0000   1.0000   1.0000   1.0000   1.0000   1.0000   1.0000
     1.0000   1.0000   1.0000   1.0000   1.0000   1.0000   1.0000   1.0000
     1.0000   1.0000   1.0000   1.0000   0.8511   0.3712   0.0001   0.0000
     0.0000   0.0000   0.0000   0.0000   0.0000   0.0000   0.0000   0.0000
     0.0000   0.0000   0.0000   0.0000   0.0000   0.0000   0.0000   0.0000
     0.0000   0.0000   0.0000   0.0000   0.0000   0.0000   0.0000   0.0000
     0.0000   0.0000   0.0000   0.0000   0.0000   0.0000   0.0000   0.0000
     0.0000   0.0000   0.0000   0.0000   0.0000   0.0000   0.0000   0.0000
     0.0000   0.0000   0.0000   0.0000

          k =-0.3750-0.1224-0.0813 (  9281 PWs)   bands (ev):

   -31.2002 -15.7363 -15.7189 -11.7194 -11.4849 -11.2897  -7.7901  -7.7007
    -7.5778  -7.2582  -7.1607  -6.8142  -6.5317  -1.2914  -1.0297  -0.9835
    -0.9070  -0.6970  -0.6785   3.8847   4.1271   4.9944   5.1376   5.1978
     5.4366   5.6690   5.7049   5.7324   5.9168   6.1657   6.3186   6.4004
     6.6021   6.8606   7.1022   7.2009   7.3885   7.4633   7.5531   7.5933
     7.7219   7.9296   8.1584   8.2676   8.4176   8.4341   8.7120   8.7752
     8.7942   8.8794   9.0328   9.2641   9.6011   9.8080  10.0482  13.7382
    14.4314  14.6483  15.6431  15.8904  16.0664  16.2520  16.4575  16.6867
    16.8405  16.9819  17.2039  17.5146  17.6437  18.1573  18.4260  18.6630
    19.0257  19.4935  19.9077  20.6179  20.7325  21.1279  22.0207  22.1767
    22.7296  23.2807  23.3959  23.6718  23.8437  24.6784  25.0179  25.5553
    25.8791  26.0962  26.3240  26.6172  26.6822  27.2919  27.5479  27.8528
    28.0216  28.2539  28.6483  28.7541

     occupation numbers 
     1.0000   1.0000   1.0000   1.0000   1.0000   1.0000   1.0000   1.0000
     1.0000   1.0000   1.0000   1.0000   1.0000   1.0000   1.0000   1.0000
     1.0000   1.0000   1.0000   1.0000   1.0000   1.0000   1.0000   1.0000
     1.0000   1.0000   1.0000   1.0000   1.0000   1.0000   1.0000   1.0000
     1.0000   1.0000   1.0000   1.0000   1.0000   1.0000   1.0000   1.0000
     1.0000   1.0000   1.0000   1.0000   1.0000   1.0000   1.0000   1.0000
     1.0000   1.0000   1.0000   1.0000   0.9073   0.2041   0.0004   0.0000
     0.0000   0.0000   0.0000   0.0000   0.0000   0.0000   0.0000   0.0000
     0.0000   0.0000   0.0000   0.0000   0.0000   0.0000   0.0000   0.0000
     0.0000   0.0000   0.0000   0.0000   0.0000   0.0000   0.0000   0.0000
     0.0000   0.0000   0.0000   0.0000   0.0000   0.0000   0.0000   0.0000
     0.0000   0.0000   0.0000   0.0000   0.0000   0.0000   0.0000   0.0000
     0.0000   0.0000   0.0000   0.0000

          k =-0.2500 0.0000 0.0000 (  9274 PWs)   bands (ev):

   -31.2070 -15.7981 -15.7776 -11.6072 -11.5279 -11.2100  -8.1401  -7.5861
    -7.5813  -7.2203  -7.1922  -6.7273  -6.5079  -1.2433  -1.0638  -0.7602
    -0.7562  -0.7355  -0.6750   4.3636   4.4977   5.0217   5.0941   5.3012
     5.3411   6.1210   6.1325   6.1436   6.2957   6.3271   6.5070   6.5107
     6.7738   7.1535   7.1875   7.1991   7.2253   7.2936   7.5385   7.6544
     7.6782   7.8177   7.9974   8.1985   8.2409   8.3079   8.4021   8.6549
     8.9440   8.9497   9.0196   9.1093   9.1249   9.3487   9.6487  13.4176
    13.7343  14.9428  14.9742  15.0668  15.5951  16.2163  16.5315  16.5396
    16.6707  16.7346  16.9146  17.4957  17.5600  18.1337  18.1766  18.3308
    18.6397  18.6787  19.4828  19.5749  20.7682  21.6889  21.7839  22.1758
    22.6170  23.7079  23.7531  23.9418  23.9798  23.9977  24.2595  25.8184
    25.9836  26.1203  26.7181  27.2056  27.2241  27.3408  27.4279  27.8958
    27.9752  28.6355  28.7137  29.5971

     occupation numbers 
     1.0000   1.0000   1.0000   1.0000   1.0000   1.0000   1.0000   1.0000
     1.0000   1.0000   1.0000   1.0000   1.0000   1.0000   1.0000   1.0000
     1.0000   1.0000   1.0000   1.0000   1.0000   1.0000   1.0000   1.0000
     1.0000   1.0000   1.0000   1.0000   1.0000   1.0000   1.0000   1.0000
     1.0000   1.0000   1.0000   1.0000   1.0000   1.0000   1.0000   1.0000
     1.0000   1.0000   1.0000   1.0000   1.0000   1.0000   1.0000   1.0000
     1.0000   1.0000   1.0000   1.0000   1.0000   1.0000   0.7966   0.0000
     0.0000   0.0000   0.0000   0.0000   0.0000   0.0000   0.0000   0.0000
     0.0000   0.0000   0.0000   0.0000   0.0000   0.0000   0.0000   0.0000
     0.0000   0.0000   0.0000   0.0000   0.0000   0.0000   0.0000   0.0000
     0.0000   0.0000   0.0000   0.0000   0.0000   0.0000   0.0000   0.0000
     0.0000   0.0000   0.0000   0.0000   0.0000   0.0000   0.0000   0.0000
     0.0000   0.0000   0.0000   0.0000

          k =-0.2500 0.0000 0.0813 (  9283 PWs)   bands (ev):

   -31.2070 -15.7986 -15.7772 -11.6073 -11.5279 -11.2100  -8.1395  -7.6045
    -7.5609  -7.2253  -7.1902  -6.7283  -6.5065  -1.2367  -1.0711  -0.7610
    -0.7587  -0.7348  -0.6722   4.3751   4.4908   5.0202   5.0929   5.3018
     5.3472   6.0521   6.1457   6.1938   6.2943   6.3686   6.5072   6.5103
     6.6664   7.1157   7.1991   7.2384   7.2528   7.3067   7.5759   7.6463
     7.6882   7.7796   8.0333   8.2025   8.2519   8.2996   8.3934   8.6685
     8.9130   8.9327   8.9956   9.1131   9.1763   9.3436   9.6269  13.4639
    13.7323  14.8866  14.9431  15.0862  15.4705  16.3011  16.3724  16.4475
    16.7411  17.0128  17.0707  17.4385  17.5333  17.9948  18.0592  18.6399
    18.6692  18.6780  19.3873  19.7618  20.6086  21.1238  22.0220  22.5438
    22.6705  23.0436  23.5918  23.8333  23.9409  24.1405  24.7180  25.8571
    26.0427  26.4534  26.6363  26.7635  27.4284  27.5056  27.7399  27.9424
    27.9576  28.7091  28.7524  29.5540

     occupation numbers 
     1.0000   1.0000   1.0000   1.0000   1.0000   1.0000   1.0000   1.0000
     1.0000   1.0000   1.0000   1.0000   1.0000   1.0000   1.0000   1.0000
     1.0000   1.0000   1.0000   1.0000   1.0000   1.0000   1.0000   1.0000
     1.0000   1.0000   1.0000   1.0000   1.0000   1.0000   1.0000   1.0000
     1.0000   1.0000   1.0000   1.0000   1.0000   1.0000   1.0000   1.0000
     1.0000   1.0000   1.0000   1.0000   1.0000   1.0000   1.0000   1.0000
     1.0000   1.0000   1.0000   1.0000   1.0000   1.0000   0.8544   0.0000
     0.0000   0.0000   0.0000   0.0000   0.0000   0.0000   0.0000   0.0000
     0.0000   0.0000   0.0000   0.0000   0.0000   0.0000   0.0000   0.0000
     0.0000   0.0000   0.0000   0.0000   0.0000   0.0000   0.0000   0.0000
     0.0000   0.0000   0.0000   0.0000   0.0000   0.0000   0.0000   0.0000
     0.0000   0.0000   0.0000   0.0000   0.0000   0.0000   0.0000   0.0000
     0.0000   0.0000   0.0000   0.0000

          k =-0.2500 0.0000-0.1626 (  9268 PWs)   bands (ev):

   -31.2070 -15.7990 -15.7767 -11.6073 -11.5279 -11.2100  -8.1389  -7.6126
    -7.5508  -7.2298  -7.1887  -6.7292  -6.5051  -1.2295  -1.0791  -0.7616
    -0.7611  -0.7340  -0.6696   4.3884   4.4820   5.0185   5.0918   5.3025
     5.3534   6.0165   6.1479   6.2352   6.2930   6.4344   6.5075   6.5098
     6.5343   7.0916   7.1992   7.2593   7.2863   7.3194   7.6286   7.6411
     7.6954   7.7255   8.0702   8.2095   8.2599   8.2915   8.3845   8.6826
     8.8868   8.9210   8.9648   9.1167   9.2393   9.3211   9.6052  13.5192
    13.7233  14.8053  14.9434  15.1219  15.3446  16.1785  16.3855  16.5711
    16.8576  17.0124  17.2134  17.3506  17.5961  17.9356  17.9682  18.6401
    18.6774  18.9519  19.2693  20.1252  20.2171  20.8993  21.9725  22.4514
    22.7296  23.1068  23.5208  23.8478  23.9539  24.3663  24.3750  25.9220
    26.1412  26.4735  26.5147  27.1555  27.5392  27.6804  27.8253  27.8954
    28.0779  28.7435  28.9361  29.4140

     occupation numbers 
     1.0000   1.0000   1.0000   1.0000   1.0000   1.0000   1.0000   1.0000
     1.0000   1.0000   1.0000   1.0000   1.0000   1.0000   1.0000   1.0000
     1.0000   1.0000   1.0000   1.0000   1.0000   1.0000   1.0000   1.0000
     1.0000   1.0000   1.0000   1.0000   1.0000   1.0000   1.0000   1.0000
     1.0000   1.0000   1.0000   1.0000   1.0000   1.0000   1.0000   1.0000
     1.0000   1.0000   1.0000   1.0000   1.0000   1.0000   1.0000   1.0000
     1.0000   1.0000   1.0000   1.0000   1.0000   1.0000   0.9000   0.0000
     0.0000   0.0000   0.0000   0.0000   0.0000   0.0000   0.0000   0.0000
     0.0000   0.0000   0.0000   0.0000   0.0000   0.0000   0.0000   0.0000
     0.0000   0.0000   0.0000   0.0000   0.0000   0.0000   0.0000   0.0000
     0.0000   0.0000   0.0000   0.0000   0.0000   0.0000   0.0000   0.0000
     0.0000   0.0000   0.0000   0.0000   0.0000   0.0000   0.0000   0.0000
     0.0000   0.0000   0.0000   0.0000

          k =-0.2500 0.0000-0.0813 (  9283 PWs)   bands (ev):

   -31.2070 -15.7986 -15.7772 -11.6073 -11.5279 -11.2100  -8.1395  -7.6045
    -7.5609  -7.2253  -7.1902  -6.7283  -6.5065  -1.2367  -1.0711  -0.7610
    -0.7587  -0.7348  -0.6722   4.3751   4.4908   5.0202   5.0929   5.3018
     5.3472   6.0521   6.1457   6.1938   6.2943   6.3686   6.5072   6.5103
     6.6664   7.1157   7.1991   7.2384   7.2528   7.3067   7.5759   7.6463
     7.6882   7.7796   8.0333   8.2025   8.2519   8.2996   8.3934   8.6685
     8.9130   8.9327   8.9956   9.1131   9.1763   9.3436   9.6269  13.4639
    13.7323  14.8866  14.9431  15.0862  15.4705  16.3011  16.3724  16.4475
    16.7411  17.0128  17.0707  17.4385  17.5333  17.9948  18.0592  18.6399
    18.6692  18.6780  19.3873  19.7618  20.6086  21.1238  22.0220  22.5438
    22.6705  23.0436  23.5918  23.8333  23.9409  24.1405  24.7180  25.8571
    26.0427  26.4534  26.6363  26.7635  27.4284  27.5056  27.7399  27.9424
    27.9576  28.7091  28.7524  29.5540

     occupation numbers 
     1.0000   1.0000   1.0000   1.0000   1.0000   1.0000   1.0000   1.0000
     1.0000   1.0000   1.0000   1.0000   1.0000   1.0000   1.0000   1.0000
     1.0000   1.0000   1.0000   1.0000   1.0000   1.0000   1.0000   1.0000
     1.0000   1.0000   1.0000   1.0000   1.0000   1.0000   1.0000   1.0000
     1.0000   1.0000   1.0000   1.0000   1.0000   1.0000   1.0000   1.0000
     1.0000   1.0000   1.0000   1.0000   1.0000   1.0000   1.0000   1.0000
     1.0000   1.0000   1.0000   1.0000   1.0000   1.0000   0.8544   0.0000
     0.0000   0.0000   0.0000   0.0000   0.0000   0.0000   0.0000   0.0000
     0.0000   0.0000   0.0000   0.0000   0.0000   0.0000   0.0000   0.0000
     0.0000   0.0000   0.0000   0.0000   0.0000   0.0000   0.0000   0.0000
     0.0000   0.0000   0.0000   0.0000   0.0000   0.0000   0.0000   0.0000
     0.0000   0.0000   0.0000   0.0000   0.0000   0.0000   0.0000   0.0000
     0.0000   0.0000   0.0000   0.0000

          k =-0.2500 0.1224 0.0000 (  9283 PWs)   bands (ev):

   -31.2054 -15.7841 -15.7638 -11.5780 -11.5235 -11.2988  -8.0310  -7.5698
    -7.5361  -7.2393  -7.1999  -6.7349  -6.5427  -1.2414  -1.0569  -0.9992
    -0.9410  -0.6135  -0.5965   4.2648   4.4818   4.9961   5.0209   5.1262
     5.4008   5.7108   5.9968   6.0492   6.1285   6.2263   6.2497   6.5370
     6.8893   6.9003   7.2290   7.2850   7.3488   7.3521   7.4150   7.6261
     7.8195   7.9424   8.0294   8.2625   8.2815   8.3976   8.5050   8.5438
     8.8290   8.8537   9.2307   9.4129   9.5105   9.8622   9.8672  13.5348
    13.8216  14.7448  15.2464  15.2497  15.4642  16.1752  16.3036  16.5037
    16.5404  16.8937  16.9520  17.5987  17.6109  17.8214  18.4642  18.5821
    18.6577  18.7937  19.6205  19.9053  20.6829  21.0882  21.9801  22.3179
    22.7076  23.0124  23.8979  24.0041  24.1633  24.4838  25.0575  25.1335
    26.0455  26.3529  26.7044  27.0046  27.0531  27.5729  27.8048  28.0102
    28.1193  28.2457  28.8469  29.1479

     occupation numbers 
     1.0000   1.0000   1.0000   1.0000   1.0000   1.0000   1.0000   1.0000
     1.0000   1.0000   1.0000   1.0000   1.0000   1.0000   1.0000   1.0000
     1.0000   1.0000   1.0000   1.0000   1.0000   1.0000   1.0000   1.0000
     1.0000   1.0000   1.0000   1.0000   1.0000   1.0000   1.0000   1.0000
     1.0000   1.0000   1.0000   1.0000   1.0000   1.0000   1.0000   1.0000
     1.0000   1.0000   1.0000   1.0000   1.0000   1.0000   1.0000   1.0000
     1.0000   1.0000   1.0000   0.9995   0.9883   0.0822   0.0747   0.0000
     0.0000   0.0000   0.0000   0.0000   0.0000   0.0000   0.0000   0.0000
     0.0000   0.0000   0.0000   0.0000   0.0000   0.0000   0.0000   0.0000
     0.0000   0.0000   0.0000   0.0000   0.0000   0.0000   0.0000   0.0000
     0.0000   0.0000   0.0000   0.0000   0.0000   0.0000   0.0000   0.0000
     0.0000   0.0000   0.0000   0.0000   0.0000   0.0000   0.0000   0.0000
     0.0000   0.0000   0.0000   0.0000

          k =-0.2500 0.1224 0.0813 (  9294 PWs)   bands (ev):

   -31.2054 -15.7845 -15.7634 -11.5780 -11.5235 -11.2989  -8.0305  -7.5795
    -7.5251  -7.2380  -7.2030  -6.7365  -6.5410  -1.2374  -1.0623  -1.0009
    -0.9382  -0.6155  -0.5946   4.2776   4.4719   4.9856   5.0392   5.1101
     5.4099   5.6990   6.0117   6.0386   6.1363   6.2326   6.2690   6.5428
     6.7481   6.9333   7.2193   7.2991   7.3533   7.4033   7.4549   7.6089
     7.8392   7.9494   8.0277   8.2612   8.2926   8.3895   8.4921   8.5381
     8.8343   8.8779   9.1994   9.3427   9.5566   9.7779   9.9539  13.5540
    13.8291  14.7520  15.1418  15.2712  15.5426  15.9830  16.2569  16.5263
    16.6786  16.7949  17.1491  17.5485  17.6552  17.7963  18.4554  18.5153
    18.7366  18.9454  19.5408  20.0491  20.5300  21.1391  22.0043  22.1429
    22.7609  22.8784  23.2087  24.0184  24.1964  24.9668  25.0770  25.5231
    26.0687  26.3692  26.7291  26.8078  27.1429  27.6792  27.8118  28.0366
    28.2135  28.3673  28.9391  29.0465

     occupation numbers 
     1.0000   1.0000   1.0000   1.0000   1.0000   1.0000   1.0000   1.0000
     1.0000   1.0000   1.0000   1.0000   1.0000   1.0000   1.0000   1.0000
     1.0000   1.0000   1.0000   1.0000   1.0000   1.0000   1.0000   1.0000
     1.0000   1.0000   1.0000   1.0000   1.0000   1.0000   1.0000   1.0000
     1.0000   1.0000   1.0000   1.0000   1.0000   1.0000   1.0000   1.0000
     1.0000   1.0000   1.0000   1.0000   1.0000   1.0000   1.0000   1.0000
     1.0000   1.0000   1.0000   1.0000   0.9630   0.3036   0.0096   0.0000
     0.0000   0.0000   0.0000   0.0000   0.0000   0.0000   0.0000   0.0000
     0.0000   0.0000   0.0000   0.0000   0.0000   0.0000   0.0000   0.0000
     0.0000   0.0000   0.0000   0.0000   0.0000   0.0000   0.0000   0.0000
     0.0000   0.0000   0.0000   0.0000   0.0000   0.0000   0.0000   0.0000
     0.0000   0.0000   0.0000   0.0000   0.0000   0.0000   0.0000   0.0000
     0.0000   0.0000   0.0000   0.0000

          k =-0.2500 0.1224-0.1626 (  9292 PWs)   bands (ev):

   -31.2054 -15.7849 -15.7630 -11.5781 -11.5235 -11.2989  -8.0299  -7.5863
    -7.5170  -7.2365  -7.2064  -6.7381  -6.5394  -1.2331  -1.0677  -1.0025
    -0.9356  -0.6173  -0.5930   4.2920   4.4603   4.9788   5.0667   5.0809
     5.4195   5.6872   6.0255   6.0284   6.1444   6.2489   6.2860   6.5751
     6.6183   6.9336   7.2140   7.3040   7.3590   7.4301   7.5363   7.5661
     7.8696   7.9204   8.0561   8.2582   8.3232   8.3557   8.4819   8.5316
     8.8261   8.9295   9.1702   9.2655   9.6035   9.7341   9.9907  13.5735
    13.8366  14.7586  15.0854  15.2907  15.5236  15.9540  16.1821  16.4768
    16.7926  16.8231  17.1866  17.5656  17.6692  17.7766  18.4067  18.5928
    18.7162  19.1760  19.3929  20.2762  20.3182  21.2720  21.7389  22.1526
    22.4819  22.8565  23.0481  24.0678  24.3938  24.9571  25.1894  25.4731
    26.0835  26.5067  26.6104  27.1989  27.2145  27.7031  27.8035  28.1990
    28.2698  28.3950  28.9543  29.1107

     occupation numbers 
     1.0000   1.0000   1.0000   1.0000   1.0000   1.0000   1.0000   1.0000
     1.0000   1.0000   1.0000   1.0000   1.0000   1.0000   1.0000   1.0000
     1.0000   1.0000   1.0000   1.0000   1.0000   1.0000   1.0000   1.0000
     1.0000   1.0000   1.0000   1.0000   1.0000   1.0000   1.0000   1.0000
     1.0000   1.0000   1.0000   1.0000   1.0000   1.0000   1.0000   1.0000
     1.0000   1.0000   1.0000   1.0000   1.0000   1.0000   1.0000   1.0000
     1.0000   1.0000   1.0000   1.0000   0.9030   0.4766   0.0032   0.0000
     0.0000   0.0000   0.0000   0.0000   0.0000   0.0000   0.0000   0.0000
     0.0000   0.0000   0.0000   0.0000   0.0000   0.0000   0.0000   0.0000
     0.0000   0.0000   0.0000   0.0000   0.0000   0.0000   0.0000   0.0000
     0.0000   0.0000   0.0000   0.0000   0.0000   0.0000   0.0000   0.0000
     0.0000   0.0000   0.0000   0.0000   0.0000   0.0000   0.0000   0.0000
     0.0000   0.0000   0.0000   0.0000

          k =-0.2500 0.1224-0.0813 (  9294 PWs)   bands (ev):

   -31.2054 -15.7845 -15.7634 -11.5780 -11.5235 -11.2989  -8.0305  -7.5795
    -7.5251  -7.2380  -7.2030  -6.7365  -6.5410  -1.2374  -1.0623  -1.0009
    -0.9382  -0.6155  -0.5946   4.2776   4.4719   4.9856   5.0392   5.1101
     5.4099   5.6990   6.0117   6.0386   6.1363   6.2326   6.2690   6.5428
     6.7481   6.9333   7.2193   7.2991   7.3533   7.4033   7.4549   7.6089
     7.8392   7.9494   8.0277   8.2612   8.2926   8.3895   8.4921   8.5381
     8.8343   8.8779   9.1994   9.3427   9.5566   9.7779   9.9539  13.5540
    13.8291  14.7520  15.1418  15.2712  15.5426  15.9830  16.2569  16.5263
    16.6786  16.7949  17.1491  17.5485  17.6552  17.7963  18.4554  18.5153
    18.7366  18.9454  19.5408  20.0491  20.5300  21.1391  22.0043  22.1429
    22.7609  22.8784  23.2087  24.0184  24.1964  24.9668  25.0770  25.5231
    26.0687  26.3692  26.7291  26.8078  27.1429  27.6792  27.8118  28.0366
    28.2135  28.3673  28.9391  29.0465

     occupation numbers 
     1.0000   1.0000   1.0000   1.0000   1.0000   1.0000   1.0000   1.0000
     1.0000   1.0000   1.0000   1.0000   1.0000   1.0000   1.0000   1.0000
     1.0000   1.0000   1.0000   1.0000   1.0000   1.0000   1.0000   1.0000
     1.0000   1.0000   1.0000   1.0000   1.0000   1.0000   1.0000   1.0000
     1.0000   1.0000   1.0000   1.0000   1.0000   1.0000   1.0000   1.0000
     1.0000   1.0000   1.0000   1.0000   1.0000   1.0000   1.0000   1.0000
     1.0000   1.0000   1.0000   1.0000   0.9630   0.3036   0.0096   0.0000
     0.0000   0.0000   0.0000   0.0000   0.0000   0.0000   0.0000   0.0000
     0.0000   0.0000   0.0000   0.0000   0.0000   0.0000   0.0000   0.0000
     0.0000   0.0000   0.0000   0.0000   0.0000   0.0000   0.0000   0.0000
     0.0000   0.0000   0.0000   0.0000   0.0000   0.0000   0.0000   0.0000
     0.0000   0.0000   0.0000   0.0000   0.0000   0.0000   0.0000   0.0000
     0.0000   0.0000   0.0000   0.0000

          k =-0.2500 0.2448 0.0000 (  9303 PWs)   bands (ev):

   -31.2014 -15.7499 -15.7301 -11.5201 -11.5045 -11.4860  -7.7772  -7.5836
    -7.3978  -7.3131  -7.1632  -6.7552  -6.6434  -1.2664  -1.2189  -1.0885
    -1.0387  -0.6846  -0.6599   3.9431   4.3617   4.8474   4.8731   4.8798
     5.0680   5.5059   5.5890   5.6488   5.8558   6.2181   6.3320   6.5168
     6.6069   6.8688   6.9316   7.2555   7.3791   7.5361   7.6344   7.8436
     7.8458   8.2236   8.3134   8.3775   8.4340   8.4417   8.7137   8.7554
     8.8097   8.8390   9.3469   9.5093  10.1850  10.3888  10.6179  13.5690
    14.1538  14.4908  15.1688  15.8608  16.0140  16.0919  16.3790  16.5059
    16.5729  16.6344  17.0687  17.5990  17.6334  17.7291  18.2623  18.8715
    19.0647  19.5264  20.0583  20.1921  20.3128  21.0712  21.7278  21.9027
    22.7705  23.1992  23.9730  24.4541  24.5019  24.7600  25.0828  25.6439
    26.0270  26.2736  26.4125  26.6528  27.1775  27.3180  27.3398  27.5770
    28.0337  28.3985  28.6202  28.6398

     occupation numbers 
     1.0000   1.0000   1.0000   1.0000   1.0000   1.0000   1.0000   1.0000
     1.0000   1.0000   1.0000   1.0000   1.0000   1.0000   1.0000   1.0000
     1.0000   1.0000   1.0000   1.0000   1.0000   1.0000   1.0000   1.0000
     1.0000   1.0000   1.0000   1.0000   1.0000   1.0000   1.0000   1.0000
     1.0000   1.0000   1.0000   1.0000   1.0000   1.0000   1.0000   1.0000
     1.0000   1.0000   1.0000   1.0000   1.0000   1.0000   1.0000   1.0000
     1.0000   1.0000   1.0000   0.9886   0.0000   0.0000   0.0000   0.0000
     0.0000   0.0000   0.0000   0.0000   0.0000   0.0000   0.0000   0.0000
     0.0000   0.0000   0.0000   0.0000   0.0000   0.0000   0.0000   0.0000
     0.0000   0.0000   0.0000   0.0000   0.0000   0.0000   0.0000   0.0000
     0.0000   0.0000   0.0000   0.0000   0.0000   0.0000   0.0000   0.0000
     0.0000   0.0000   0.0000   0.0000   0.0000   0.0000   0.0000   0.0000
     0.0000   0.0000   0.0000   0.0000

          k =-0.2500 0.2448 0.0813 (  9296 PWs)   bands (ev):

   -31.2014 -15.7502 -15.7298 -11.5201 -11.5045 -11.4860  -7.7763  -7.5860
    -7.3965  -7.3117  -7.1635  -6.7576  -6.6420  -1.2645  -1.2209  -1.0857
    -1.0411  -0.6884  -0.6564   3.9570   4.3417   4.8497   4.8645   4.8889
     5.0686   5.5027   5.5932   5.6284   5.8966   6.2262   6.3414   6.5019
     6.5718   6.7902   6.9340   7.3782   7.3896   7.5455   7.6331   7.7773
     7.8955   8.2288   8.2927   8.4169   8.4286   8.4554   8.6521   8.7844
     8.8059   8.8617   9.2733   9.4800  10.1940  10.3831  10.6647  13.5982
    14.1219  14.5027  15.2483  15.7743  15.9199  16.0949  16.2065  16.3812
    16.6879  16.7847  17.2136  17.5576  17.6384  17.8044  18.3549  18.7632
    19.1554  19.5295  19.9203  20.1203  20.4270  21.1711  21.8264  21.8984
    22.5230  23.0530  23.5150  24.1130  24.5937  25.0247  25.6443  25.8784
    26.0002  26.3412  26.5879  26.6931  27.0997  27.2109  27.4064  27.4992
    27.9344  28.4170  28.6721  28.7456

     occupation numbers 
     1.0000   1.0000   1.0000   1.0000   1.0000   1.0000   1.0000   1.0000
     1.0000   1.0000   1.0000   1.0000   1.0000   1.0000   1.0000   1.0000
     1.0000   1.0000   1.0000   1.0000   1.0000   1.0000   1.0000   1.0000
     1.0000   1.0000   1.0000   1.0000   1.0000   1.0000   1.0000   1.0000
     1.0000   1.0000   1.0000   1.0000   1.0000   1.0000   1.0000   1.0000
     1.0000   1.0000   1.0000   1.0000   1.0000   1.0000   1.0000   1.0000
     1.0000   1.0000   1.0000   0.9951   0.0000   0.0000   0.0000   0.0000
     0.0000   0.0000   0.0000   0.0000   0.0000   0.0000   0.0000   0.0000
     0.0000   0.0000   0.0000   0.0000   0.0000   0.0000   0.0000   0.0000
     0.0000   0.0000   0.0000   0.0000   0.0000   0.0000   0.0000   0.0000
     0.0000   0.0000   0.0000   0.0000   0.0000   0.0000   0.0000   0.0000
     0.0000   0.0000   0.0000   0.0000   0.0000   0.0000   0.0000   0.0000
     0.0000   0.0000   0.0000   0.0000

          k =-0.2500 0.2448-0.1626 (  9288 PWs)   bands (ev):

   -31.2014 -15.7506 -15.7294 -11.5201 -11.5046 -11.4860  -7.7753  -7.5885
    -7.3952  -7.3103  -7.1637  -6.7599  -6.6407  -1.2626  -1.2230  -1.0827
    -1.0438  -0.6916  -0.6536   3.9725   4.3202   4.8547   4.8571   4.8942
     5.0691   5.4994   5.6044   5.6046   5.9369   6.2347   6.3684   6.4530
     6.5431   6.7417   6.9366   7.3807   7.5550   7.5581   7.6032   7.6926
     7.9304   8.2329   8.2836   8.4215   8.4376   8.5164   8.5747   8.7911
     8.8024   8.8979   9.1793   9.4620  10.2030  10.3777  10.7068  13.6313
    14.0857  14.5150  15.3967  15.6284  15.8046  16.0410  16.1709  16.3377
    16.7715  16.8417  17.3536  17.4688  17.6778  17.8791  18.4796  18.6587
    19.2020  19.6302  19.6582  20.2095  20.3884  21.5037  21.7564  21.9874
    22.0284  23.0339  23.1783  24.1366  24.8320  24.8368  25.7302  26.0755
    26.1446  26.3428  26.6864  26.9861  27.0901  27.1459  27.4687  27.5189
    27.9366  28.2366  28.7598  28.8595

     occupation numbers 
     1.0000   1.0000   1.0000   1.0000   1.0000   1.0000   1.0000   1.0000
     1.0000   1.0000   1.0000   1.0000   1.0000   1.0000   1.0000   1.0000
     1.0000   1.0000   1.0000   1.0000   1.0000   1.0000   1.0000   1.0000
     1.0000   1.0000   1.0000   1.0000   1.0000   1.0000   1.0000   1.0000
     1.0000   1.0000   1.0000   1.0000   1.0000   1.0000   1.0000   1.0000
     1.0000   1.0000   1.0000   1.0000   1.0000   1.0000   1.0000   1.0000
     1.0000   1.0000   1.0000   0.9972   0.0000   0.0000   0.0000   0.0000
     0.0000   0.0000   0.0000   0.0000   0.0000   0.0000   0.0000   0.0000
     0.0000   0.0000   0.0000   0.0000   0.0000   0.0000   0.0000   0.0000
     0.0000   0.0000   0.0000   0.0000   0.0000   0.0000   0.0000   0.0000
     0.0000   0.0000   0.0000   0.0000   0.0000   0.0000   0.0000   0.0000
     0.0000   0.0000   0.0000   0.0000   0.0000   0.0000   0.0000   0.0000
     0.0000   0.0000   0.0000   0.0000

          k =-0.2500 0.2448-0.0813 (  9296 PWs)   bands (ev):

   -31.2014 -15.7502 -15.7298 -11.5201 -11.5045 -11.4860  -7.7763  -7.5860
    -7.3965  -7.3117  -7.1635  -6.7576  -6.6420  -1.2645  -1.2209  -1.0857
    -1.0411  -0.6884  -0.6564   3.9570   4.3417   4.8497   4.8645   4.8889
     5.0686   5.5027   5.5932   5.6284   5.8966   6.2262   6.3414   6.5019
     6.5718   6.7902   6.9340   7.3782   7.3896   7.5455   7.6331   7.7773
     7.8955   8.2288   8.2927   8.4169   8.4286   8.4554   8.6521   8.7844
     8.8059   8.8617   9.2733   9.4800  10.1940  10.3831  10.6647  13.5982
    14.1219  14.5027  15.2483  15.7743  15.9199  16.0949  16.2065  16.3812
    16.6879  16.7847  17.2136  17.5576  17.6384  17.8044  18.3549  18.7632
    19.1554  19.5295  19.9203  20.1203  20.4270  21.1711  21.8264  21.8984
    22.5230  23.0530  23.5150  24.1130  24.5937  25.0247  25.6443  25.8784
    26.0002  26.3412  26.5879  26.6931  27.0997  27.2109  27.4064  27.4992
    27.9344  28.4170  28.6721  28.7456

     occupation numbers 
     1.0000   1.0000   1.0000   1.0000   1.0000   1.0000   1.0000   1.0000
     1.0000   1.0000   1.0000   1.0000   1.0000   1.0000   1.0000   1.0000
     1.0000   1.0000   1.0000   1.0000   1.0000   1.0000   1.0000   1.0000
     1.0000   1.0000   1.0000   1.0000   1.0000   1.0000   1.0000   1.0000
     1.0000   1.0000   1.0000   1.0000   1.0000   1.0000   1.0000   1.0000
     1.0000   1.0000   1.0000   1.0000   1.0000   1.0000   1.0000   1.0000
     1.0000   1.0000   1.0000   0.9951   0.0000   0.0000   0.0000   0.0000
     0.0000   0.0000   0.0000   0.0000   0.0000   0.0000   0.0000   0.0000
     0.0000   0.0000   0.0000   0.0000   0.0000   0.0000   0.0000   0.0000
     0.0000   0.0000   0.0000   0.0000   0.0000   0.0000   0.0000   0.0000
     0.0000   0.0000   0.0000   0.0000   0.0000   0.0000   0.0000   0.0000
     0.0000   0.0000   0.0000   0.0000   0.0000   0.0000   0.0000   0.0000
     0.0000   0.0000   0.0000   0.0000

          k =-0.2500 0.3672 0.0000 (  9294 PWs)   bands (ev):

   -31.1973 -15.7150 -15.6959 -11.6699 -11.4988 -11.4262  -7.6786  -7.5061
    -7.3079  -7.2224  -7.1524  -6.7953  -6.7795  -1.2863  -1.2850  -1.1279
    -1.0293  -0.8932  -0.8266   3.5871   4.0973   4.2819   4.7715   4.8406
     5.0310   5.1312   5.3425   5.7295   5.7789   6.1758   6.3722   6.4157
     6.4689   6.6578   6.8230   7.3097   7.4015   7.6627   7.9519   7.9536
     7.9957   8.2824   8.4527   8.4713   8.6012   8.7012   8.7457   8.9101
     9.0128   9.0236   9.2800   9.5038  10.5503  10.7058  11.1247  13.4221
    14.0729  14.6765  15.6053  15.6828  16.1827  16.4174  16.5859  16.7566
    16.8949  17.1090  17.3319  17.3750  17.8163  17.8457  18.3646  18.6074
    19.5908  19.6419  20.3436  20.6035  20.6353  21.1102  21.7760  22.0153
    22.8986  22.9032  23.7170  24.3519  24.4169  24.6524  24.8764  25.1843
    25.2053  25.7256  26.0387  26.2077  26.8175  27.0446  27.1846  27.5457
    27.9016  28.1969  28.6712  28.7663

     occupation numbers 
     1.0000   1.0000   1.0000   1.0000   1.0000   1.0000   1.0000   1.0000
     1.0000   1.0000   1.0000   1.0000   1.0000   1.0000   1.0000   1.0000
     1.0000   1.0000   1.0000   1.0000   1.0000   1.0000   1.0000   1.0000
     1.0000   1.0000   1.0000   1.0000   1.0000   1.0000   1.0000   1.0000
     1.0000   1.0000   1.0000   1.0000   1.0000   1.0000   1.0000   1.0000
     1.0000   1.0000   1.0000   1.0000   1.0000   1.0000   1.0000   1.0000
     1.0000   1.0000   1.0000   0.9902   0.0000   0.0000   0.0000   0.0000
     0.0000   0.0000   0.0000   0.0000   0.0000   0.0000   0.0000   0.0000
     0.0000   0.0000   0.0000   0.0000   0.0000   0.0000   0.0000   0.0000
     0.0000   0.0000   0.0000   0.0000   0.0000   0.0000   0.0000   0.0000
     0.0000   0.0000   0.0000   0.0000   0.0000   0.0000   0.0000   0.0000
     0.0000   0.0000   0.0000   0.0000   0.0000   0.0000   0.0000   0.0000
     0.0000   0.0000   0.0000   0.0000

          k =-0.2500 0.3672 0.0813 (  9302 PWs)   bands (ev):

   -31.1973 -15.7153 -15.6956 -11.6699 -11.4988 -11.4262  -7.6802  -7.5039
    -7.3082  -7.2151  -7.1604  -6.7977  -6.7768  -1.2869  -1.2836  -1.1257
    -1.0336  -0.8961  -0.8226   3.6030   4.0618   4.2951   4.7715   4.8387
     5.0375   5.1215   5.3576   5.6999   5.8333   6.1814   6.3258   6.3669
     6.5182   6.6503   6.7825   7.3780   7.4479   7.6723   7.8703   7.9790
     8.0185   8.2955   8.4322   8.5318   8.6049   8.6678   8.7706   8.9020
     8.9545   9.0465   9.2017   9.4948  10.5543  10.7025  11.1893  13.4562
    14.0489  14.6986  15.4629  15.6775  16.0957  16.4419  16.5719  16.8428
    16.9410  17.0391  17.3086  17.5338  17.7727  17.9522  18.4173  18.5666
    19.5845  19.7769  20.3052  20.4563  20.7454  20.9929  21.7266  22.0620
    22.6224  23.2257  23.5845  23.9020  24.3089  24.6885  24.8535  24.9925
    25.7554  25.9426  26.0717  26.3869  26.7157  27.1511  27.2635  27.7366
    27.9195  28.1457  28.4756  28.8908

     occupation numbers 
     1.0000   1.0000   1.0000   1.0000   1.0000   1.0000   1.0000   1.0000
     1.0000   1.0000   1.0000   1.0000   1.0000   1.0000   1.0000   1.0000
     1.0000   1.0000   1.0000   1.0000   1.0000   1.0000   1.0000   1.0000
     1.0000   1.0000   1.0000   1.0000   1.0000   1.0000   1.0000   1.0000
     1.0000   1.0000   1.0000   1.0000   1.0000   1.0000   1.0000   1.0000
     1.0000   1.0000   1.0000   1.0000   1.0000   1.0000   1.0000   1.0000
     1.0000   1.0000   1.0000   0.9924   0.0000   0.0000   0.0000   0.0000
     0.0000   0.0000   0.0000   0.0000   0.0000   0.0000   0.0000   0.0000
     0.0000   0.0000   0.0000   0.0000   0.0000   0.0000   0.0000   0.0000
     0.0000   0.0000   0.0000   0.0000   0.0000   0.0000   0.0000   0.0000
     0.0000   0.0000   0.0000   0.0000   0.0000   0.0000   0.0000   0.0000
     0.0000   0.0000   0.0000   0.0000   0.0000   0.0000   0.0000   0.0000
     0.0000   0.0000   0.0000   0.0000

          k =-0.2500 0.3672-0.1626 (  9296 PWs)   bands (ev):

   -31.1973 -15.7157 -15.6953 -11.6699 -11.4987 -11.4263  -7.6818  -7.5017
    -7.3084  -7.2046  -7.1715  -6.7996  -6.7746  -1.2878  -1.2819  -1.1233
    -1.0380  -0.8988  -0.8188   3.6208   4.0275   4.3053   4.7715   4.8370
     5.0439   5.1124   5.3728   5.6815   5.8840   6.1890   6.2543   6.3584
     6.5489   6.6304   6.7577   7.3884   7.5885   7.6887   7.7495   7.9784
     8.0571   8.3067   8.4233   8.6148   8.6194   8.6697   8.7260   8.8732
     8.8991   9.0555   9.1439   9.4879  10.5584  10.6994  11.2501  13.4942
    14.0211  14.7255  15.3358  15.6675  16.0461  16.3855  16.6324  16.8464
    16.9694  17.0602  17.3285  17.5247  17.8499  18.0307  18.4774  18.5316
    19.5691  20.0006  20.1411  20.4797  20.5772  21.1413  21.5181  22.1434
    22.4023  23.4596  23.4657  23.7771  24.1731  24.7185  24.8208  24.9575
    25.7212  25.9201  26.1243  26.6627  26.8958  27.3393  27.5195  27.6098
    27.9404  28.3573  28.4433  28.6638

     occupation numbers 
     1.0000   1.0000   1.0000   1.0000   1.0000   1.0000   1.0000   1.0000
     1.0000   1.0000   1.0000   1.0000   1.0000   1.0000   1.0000   1.0000
     1.0000   1.0000   1.0000   1.0000   1.0000   1.0000   1.0000   1.0000
     1.0000   1.0000   1.0000   1.0000   1.0000   1.0000   1.0000   1.0000
     1.0000   1.0000   1.0000   1.0000   1.0000   1.0000   1.0000   1.0000
     1.0000   1.0000   1.0000   1.0000   1.0000   1.0000   1.0000   1.0000
     1.0000   1.0000   1.0000   0.9938   0.0000   0.0000   0.0000   0.0000
     0.0000   0.0000   0.0000   0.0000   0.0000   0.0000   0.0000   0.0000
     0.0000   0.0000   0.0000   0.0000   0.0000   0.0000   0.0000   0.0000
     0.0000   0.0000   0.0000   0.0000   0.0000   0.0000   0.0000   0.0000
     0.0000   0.0000   0.0000   0.0000   0.0000   0.0000   0.0000   0.0000
     0.0000   0.0000   0.0000   0.0000   0.0000   0.0000   0.0000   0.0000
     0.0000   0.0000   0.0000   0.0000

          k =-0.2500 0.3672-0.0813 (  9302 PWs)   bands (ev):

   -31.1973 -15.7153 -15.6956 -11.6699 -11.4988 -11.4262  -7.6802  -7.5039
    -7.3082  -7.2151  -7.1604  -6.7977  -6.7768  -1.2869  -1.2836  -1.1257
    -1.0336  -0.8961  -0.8226   3.6030   4.0618   4.2951   4.7715   4.8387
     5.0375   5.1215   5.3576   5.6999   5.8333   6.1814   6.3258   6.3669
     6.5182   6.6503   6.7825   7.3780   7.4479   7.6723   7.8703   7.9790
     8.0185   8.2955   8.4322   8.5318   8.6049   8.6678   8.7706   8.9020
     8.9545   9.0465   9.2017   9.4948  10.5543  10.7025  11.1893  13.4562
    14.0489  14.6986  15.4629  15.6775  16.0957  16.4419  16.5719  16.8428
    16.9410  17.0391  17.3086  17.5338  17.7727  17.9522  18.4173  18.5666
    19.5845  19.7769  20.3052  20.4563  20.7454  20.9929  21.7266  22.0620
    22.6224  23.2257  23.5845  23.9020  24.3089  24.6885  24.8535  24.9925
    25.7554  25.9426  26.0717  26.3869  26.7157  27.1511  27.2635  27.7366
    27.9195  28.1457  28.4756  28.8908

     occupation numbers 
     1.0000   1.0000   1.0000   1.0000   1.0000   1.0000   1.0000   1.0000
     1.0000   1.0000   1.0000   1.0000   1.0000   1.0000   1.0000   1.0000
     1.0000   1.0000   1.0000   1.0000   1.0000   1.0000   1.0000   1.0000
     1.0000   1.0000   1.0000   1.0000   1.0000   1.0000   1.0000   1.0000
     1.0000   1.0000   1.0000   1.0000   1.0000   1.0000   1.0000   1.0000
     1.0000   1.0000   1.0000   1.0000   1.0000   1.0000   1.0000   1.0000
     1.0000   1.0000   1.0000   0.9924   0.0000   0.0000   0.0000   0.0000
     0.0000   0.0000   0.0000   0.0000   0.0000   0.0000   0.0000   0.0000
     0.0000   0.0000   0.0000   0.0000   0.0000   0.0000   0.0000   0.0000
     0.0000   0.0000   0.0000   0.0000   0.0000   0.0000   0.0000   0.0000
     0.0000   0.0000   0.0000   0.0000   0.0000   0.0000   0.0000   0.0000
     0.0000   0.0000   0.0000   0.0000   0.0000   0.0000   0.0000   0.0000
     0.0000   0.0000   0.0000   0.0000

          k =-0.2500-0.4896 0.0000 (  9284 PWs)   bands (ev):

   -31.1957 -15.7004 -15.6816 -11.7365 -11.4945 -11.3922  -7.7334  -7.3177
    -7.2909  -7.2755  -6.9994  -6.9624  -6.7911  -1.2406  -1.1937  -1.1711
    -1.1468  -0.9742  -0.9196   3.4417   3.9638   4.0593   4.7532   4.8610
     4.9841   5.0197   5.2545   5.7441   5.7649   6.1962   6.3255   6.3473
     6.4932   6.5725   6.7985   7.3215   7.4300   7.6752   7.9869   8.1136
     8.1423   8.3194   8.4713   8.4884   8.5454   8.7129   8.9247   9.0324
     9.0925   9.1513   9.1986   9.4371  10.6492  10.7859  11.2815  13.3450
    14.0169  14.6953  15.4771  16.1367  16.3237  16.5585  16.6071  16.8834
    16.9878  16.9900  17.2049  17.7974  17.9075  17.9534  18.3642  18.8100
    19.6872  19.8930  20.4112  21.0427  21.0937  21.3344  21.7666  21.9993
    22.4826  22.7562  23.5722  23.7306  23.8109  23.8523  24.5725  24.6244
    25.2161  25.7016  26.0113  26.4190  26.8129  26.9476  27.0615  27.7796
    28.0448  28.2112  28.8243  29.1018

     occupation numbers 
     1.0000   1.0000   1.0000   1.0000   1.0000   1.0000   1.0000   1.0000
     1.0000   1.0000   1.0000   1.0000   1.0000   1.0000   1.0000   1.0000
     1.0000   1.0000   1.0000   1.0000   1.0000   1.0000   1.0000   1.0000
     1.0000   1.0000   1.0000   1.0000   1.0000   1.0000   1.0000   1.0000
     1.0000   1.0000   1.0000   1.0000   1.0000   1.0000   1.0000   1.0000
     1.0000   1.0000   1.0000   1.0000   1.0000   1.0000   1.0000   1.0000
     1.0000   1.0000   1.0000   0.9988   0.0000   0.0000   0.0000   0.0000
     0.0000   0.0000   0.0000   0.0000   0.0000   0.0000   0.0000   0.0000
     0.0000   0.0000   0.0000   0.0000   0.0000   0.0000   0.0000   0.0000
     0.0000   0.0000   0.0000   0.0000   0.0000   0.0000   0.0000   0.0000
     0.0000   0.0000   0.0000   0.0000   0.0000   0.0000   0.0000   0.0000
     0.0000   0.0000   0.0000   0.0000   0.0000   0.0000   0.0000   0.0000
     0.0000   0.0000   0.0000   0.0000

          k =-0.2500-0.4896 0.0813 (  9296 PWs)   bands (ev):

   -31.1957 -15.7007 -15.6813 -11.7365 -11.4945 -11.3922  -7.7349  -7.3171
    -7.2913  -7.2668  -6.9995  -6.9777  -6.7829  -1.2401  -1.1942  -1.1672
    -1.1508  -0.9787  -0.9151   3.4592   3.9135   4.0859   4.7539   4.8532
     4.9718   5.0326   5.2727   5.7230   5.8152   6.1986   6.2606   6.3181
     6.5392   6.5761   6.7554   7.3787   7.4811   7.6839   7.9118   8.1392
     8.1615   8.3480   8.4758   8.5259   8.5287   8.7075   8.9425   8.9794
     9.0157   9.1642   9.1656   9.4315  10.6531  10.7814  11.3581  13.3587
    13.9810  14.7821  15.5124  15.8275  16.2333  16.4302  16.6636  16.8966
    16.9642  17.2851  17.3106  17.6862  17.9549  18.0749  18.3774  18.8120
    19.6877  20.0083  20.4547  20.9645  20.9812  21.2584  21.7939  22.0058
    22.4887  22.6110  23.3992  23.6084  23.8846  24.0800  24.1432  24.5676
    25.3904  25.9011  26.2917  26.5158  26.6064  26.9408  27.5162  27.9036
    28.0655  28.0948  28.6655  29.0406

     occupation numbers 
     1.0000   1.0000   1.0000   1.0000   1.0000   1.0000   1.0000   1.0000
     1.0000   1.0000   1.0000   1.0000   1.0000   1.0000   1.0000   1.0000
     1.0000   1.0000   1.0000   1.0000   1.0000   1.0000   1.0000   1.0000
     1.0000   1.0000   1.0000   1.0000   1.0000   1.0000   1.0000   1.0000
     1.0000   1.0000   1.0000   1.0000   1.0000   1.0000   1.0000   1.0000
     1.0000   1.0000   1.0000   1.0000   1.0000   1.0000   1.0000   1.0000
     1.0000   1.0000   1.0000   0.9990   0.0000   0.0000   0.0000   0.0000
     0.0000   0.0000   0.0000   0.0000   0.0000   0.0000   0.0000   0.0000
     0.0000   0.0000   0.0000   0.0000   0.0000   0.0000   0.0000   0.0000
     0.0000   0.0000   0.0000   0.0000   0.0000   0.0000   0.0000   0.0000
     0.0000   0.0000   0.0000   0.0000   0.0000   0.0000   0.0000   0.0000
     0.0000   0.0000   0.0000   0.0000   0.0000   0.0000   0.0000   0.0000
     0.0000   0.0000   0.0000   0.0000

          k =-0.2500-0.4896-0.1626 (  9260 PWs)   bands (ev):

   -31.1956 -15.7010 -15.6810 -11.7365 -11.4945 -11.3922  -7.7364  -7.3165
    -7.2916  -7.2576  -6.9997  -6.9927  -6.7757  -1.2397  -1.1947  -1.1629
    -1.1550  -0.9834  -0.9108   3.4791   3.8715   4.1020   4.7547   4.8463
     4.9605   5.0444   5.2905   5.7103   5.8682   6.1807   6.2006   6.3112
     6.5667   6.5822   6.7172   7.3954   7.6081   7.6924   7.7995   8.1361
     8.2111   8.4049   8.4314   8.5105   8.7009   8.7024   8.7253   8.9743
     8.9858   9.1557   9.1761   9.4258  10.6569  10.7774  11.4312  13.3739
    13.9429  14.9117  15.5378  15.5548  16.1927  16.3151  16.7121  16.8609
    16.9975  17.3372  17.5353  17.5605  18.1114  18.1117  18.3896  18.8023
    19.6885  20.1622  20.5884  20.7937  20.8380  21.1731  21.8856  22.0358
    22.1119  22.7235  23.2959  23.6106  23.9176  23.9622  24.3039  24.4373
    25.4094  25.7881  26.2178  26.4744  26.9509  27.4009  27.8742  27.9301
    28.0799  28.3649  28.5026  28.5088

     occupation numbers 
     1.0000   1.0000   1.0000   1.0000   1.0000   1.0000   1.0000   1.0000
     1.0000   1.0000   1.0000   1.0000   1.0000   1.0000   1.0000   1.0000
     1.0000   1.0000   1.0000   1.0000   1.0000   1.0000   1.0000   1.0000
     1.0000   1.0000   1.0000   1.0000   1.0000   1.0000   1.0000   1.0000
     1.0000   1.0000   1.0000   1.0000   1.0000   1.0000   1.0000   1.0000
     1.0000   1.0000   1.0000   1.0000   1.0000   1.0000   1.0000   1.0000
     1.0000   1.0000   1.0000   0.9992   0.0000   0.0000   0.0000   0.0000
     0.0000   0.0000   0.0000   0.0000   0.0000   0.0000   0.0000   0.0000
     0.0000   0.0000   0.0000   0.0000   0.0000   0.0000   0.0000   0.0000
     0.0000   0.0000   0.0000   0.0000   0.0000   0.0000   0.0000   0.0000
     0.0000   0.0000   0.0000   0.0000   0.0000   0.0000   0.0000   0.0000
     0.0000   0.0000   0.0000   0.0000   0.0000   0.0000   0.0000   0.0000
     0.0000   0.0000   0.0000   0.0000

          k =-0.2500-0.4896-0.0813 (  9296 PWs)   bands (ev):

   -31.1957 -15.7007 -15.6813 -11.7365 -11.4945 -11.3922  -7.7349  -7.3171
    -7.2913  -7.2668  -6.9995  -6.9777  -6.7829  -1.2401  -1.1942  -1.1672
    -1.1508  -0.9787  -0.9151   3.4592   3.9135   4.0859   4.7539   4.8532
     4.9718   5.0326   5.2727   5.7230   5.8152   6.1986   6.2606   6.3181
     6.5392   6.5761   6.7554   7.3787   7.4811   7.6839   7.9118   8.1392
     8.1615   8.3480   8.4758   8.5259   8.5287   8.7075   8.9425   8.9794
     9.0157   9.1642   9.1656   9.4315  10.6531  10.7814  11.3581  13.3587
    13.9810  14.7821  15.5124  15.8275  16.2333  16.4302  16.6636  16.8966
    16.9642  17.2851  17.3106  17.6862  17.9549  18.0749  18.3774  18.8120
    19.6877  20.0083  20.4547  20.9645  20.9812  21.2584  21.7939  22.0058
    22.4887  22.6110  23.3992  23.6084  23.8846  24.0800  24.1432  24.5676
    25.3904  25.9011  26.2917  26.5158  26.6064  26.9408  27.5162  27.9036
    28.0655  28.0948  28.6655  29.0406

     occupation numbers 
     1.0000   1.0000   1.0000   1.0000   1.0000   1.0000   1.0000   1.0000
     1.0000   1.0000   1.0000   1.0000   1.0000   1.0000   1.0000   1.0000
     1.0000   1.0000   1.0000   1.0000   1.0000   1.0000   1.0000   1.0000
     1.0000   1.0000   1.0000   1.0000   1.0000   1.0000   1.0000   1.0000
     1.0000   1.0000   1.0000   1.0000   1.0000   1.0000   1.0000   1.0000
     1.0000   1.0000   1.0000   1.0000   1.0000   1.0000   1.0000   1.0000
     1.0000   1.0000   1.0000   0.9990   0.0000   0.0000   0.0000   0.0000
     0.0000   0.0000   0.0000   0.0000   0.0000   0.0000   0.0000   0.0000
     0.0000   0.0000   0.0000   0.0000   0.0000   0.0000   0.0000   0.0000
     0.0000   0.0000   0.0000   0.0000   0.0000   0.0000   0.0000   0.0000
     0.0000   0.0000   0.0000   0.0000   0.0000   0.0000   0.0000   0.0000
     0.0000   0.0000   0.0000   0.0000   0.0000   0.0000   0.0000   0.0000
     0.0000   0.0000   0.0000   0.0000

          k =-0.2500-0.3672 0.0000 (  9294 PWs)   bands (ev):

   -31.1973 -15.7150 -15.6959 -11.6699 -11.4988 -11.4262  -7.6786  -7.5061
    -7.3079  -7.2224  -7.1524  -6.7953  -6.7795  -1.2863  -1.2850  -1.1279
    -1.0293  -0.8932  -0.8266   3.5871   4.0973   4.2819   4.7715   4.8406
     5.0310   5.1312   5.3425   5.7295   5.7789   6.1758   6.3722   6.4157
     6.4689   6.6578   6.8230   7.3097   7.4015   7.6627   7.9519   7.9536
     7.9957   8.2824   8.4527   8.4713   8.6012   8.7012   8.7457   8.9101
     9.0128   9.0236   9.2800   9.5038  10.5503  10.7058  11.1247  13.4221
    14.0729  14.6765  15.6053  15.6828  16.1827  16.4174  16.5859  16.7566
    16.8949  17.1090  17.3319  17.3750  17.8163  17.8457  18.3646  18.6074
    19.5908  19.6419  20.3436  20.6035  20.6353  21.1102  21.7760  22.0153
    22.8986  22.9032  23.7170  24.3519  24.4169  24.6524  24.8764  25.1843
    25.2053  25.7256  26.0387  26.2077  26.8175  27.0446  27.1846  27.5457
    27.9016  28.1969  28.6712  28.7663

     occupation numbers 
     1.0000   1.0000   1.0000   1.0000   1.0000   1.0000   1.0000   1.0000
     1.0000   1.0000   1.0000   1.0000   1.0000   1.0000   1.0000   1.0000
     1.0000   1.0000   1.0000   1.0000   1.0000   1.0000   1.0000   1.0000
     1.0000   1.0000   1.0000   1.0000   1.0000   1.0000   1.0000   1.0000
     1.0000   1.0000   1.0000   1.0000   1.0000   1.0000   1.0000   1.0000
     1.0000   1.0000   1.0000   1.0000   1.0000   1.0000   1.0000   1.0000
     1.0000   1.0000   1.0000   0.9902   0.0000   0.0000   0.0000   0.0000
     0.0000   0.0000   0.0000   0.0000   0.0000   0.0000   0.0000   0.0000
     0.0000   0.0000   0.0000   0.0000   0.0000   0.0000   0.0000   0.0000
     0.0000   0.0000   0.0000   0.0000   0.0000   0.0000   0.0000   0.0000
     0.0000   0.0000   0.0000   0.0000   0.0000   0.0000   0.0000   0.0000
     0.0000   0.0000   0.0000   0.0000   0.0000   0.0000   0.0000   0.0000
     0.0000   0.0000   0.0000   0.0000

          k =-0.2500-0.3672 0.0813 (  9302 PWs)   bands (ev):

   -31.1973 -15.7153 -15.6956 -11.6699 -11.4988 -11.4262  -7.6802  -7.5039
    -7.3082  -7.2151  -7.1604  -6.7977  -6.7768  -1.2869  -1.2836  -1.1257
    -1.0336  -0.8961  -0.8226   3.6030   4.0618   4.2951   4.7715   4.8387
     5.0375   5.1215   5.3576   5.6999   5.8333   6.1814   6.3258   6.3669
     6.5182   6.6503   6.7825   7.3780   7.4479   7.6723   7.8703   7.9790
     8.0185   8.2955   8.4322   8.5318   8.6049   8.6678   8.7706   8.9020
     8.9545   9.0465   9.2017   9.4948  10.5543  10.7025  11.1893  13.4562
    14.0489  14.6986  15.4629  15.6775  16.0957  16.4419  16.5719  16.8428
    16.9410  17.0391  17.3086  17.5338  17.7727  17.9522  18.4173  18.5666
    19.5845  19.7769  20.3052  20.4563  20.7454  20.9929  21.7266  22.0620
    22.6224  23.2257  23.5845  23.9020  24.3089  24.6885  24.8535  24.9925
    25.7554  25.9426  26.0717  26.3869  26.7157  27.1511  27.2635  27.7366
    27.9195  28.1457  28.4756  28.8908

     occupation numbers 
     1.0000   1.0000   1.0000   1.0000   1.0000   1.0000   1.0000   1.0000
     1.0000   1.0000   1.0000   1.0000   1.0000   1.0000   1.0000   1.0000
     1.0000   1.0000   1.0000   1.0000   1.0000   1.0000   1.0000   1.0000
     1.0000   1.0000   1.0000   1.0000   1.0000   1.0000   1.0000   1.0000
     1.0000   1.0000   1.0000   1.0000   1.0000   1.0000   1.0000   1.0000
     1.0000   1.0000   1.0000   1.0000   1.0000   1.0000   1.0000   1.0000
     1.0000   1.0000   1.0000   0.9924   0.0000   0.0000   0.0000   0.0000
     0.0000   0.0000   0.0000   0.0000   0.0000   0.0000   0.0000   0.0000
     0.0000   0.0000   0.0000   0.0000   0.0000   0.0000   0.0000   0.0000
     0.0000   0.0000   0.0000   0.0000   0.0000   0.0000   0.0000   0.0000
     0.0000   0.0000   0.0000   0.0000   0.0000   0.0000   0.0000   0.0000
     0.0000   0.0000   0.0000   0.0000   0.0000   0.0000   0.0000   0.0000
     0.0000   0.0000   0.0000   0.0000

          k =-0.2500-0.3672-0.1626 (  9296 PWs)   bands (ev):

   -31.1973 -15.7157 -15.6953 -11.6699 -11.4987 -11.4263  -7.6818  -7.5017
    -7.3084  -7.2046  -7.1715  -6.7996  -6.7746  -1.2878  -1.2819  -1.1233
    -1.0380  -0.8988  -0.8188   3.6208   4.0275   4.3053   4.7715   4.8370
     5.0439   5.1124   5.3728   5.6815   5.8840   6.1890   6.2543   6.3584
     6.5489   6.6304   6.7577   7.3884   7.5885   7.6887   7.7495   7.9784
     8.0571   8.3067   8.4233   8.6148   8.6194   8.6697   8.7260   8.8732
     8.8991   9.0555   9.1439   9.4879  10.5584  10.6994  11.2501  13.4942
    14.0211  14.7255  15.3358  15.6675  16.0461  16.3855  16.6324  16.8464
    16.9694  17.0602  17.3285  17.5247  17.8499  18.0307  18.4774  18.5316
    19.5691  20.0006  20.1411  20.4797  20.5772  21.1413  21.5181  22.1434
    22.4023  23.4596  23.4657  23.7771  24.1731  24.7185  24.8208  24.9575
    25.7212  25.9201  26.1243  26.6627  26.8958  27.3393  27.5195  27.6098
    27.9404  28.3573  28.4433  28.6638

     occupation numbers 
     1.0000   1.0000   1.0000   1.0000   1.0000   1.0000   1.0000   1.0000
     1.0000   1.0000   1.0000   1.0000   1.0000   1.0000   1.0000   1.0000
     1.0000   1.0000   1.0000   1.0000   1.0000   1.0000   1.0000   1.0000
     1.0000   1.0000   1.0000   1.0000   1.0000   1.0000   1.0000   1.0000
     1.0000   1.0000   1.0000   1.0000   1.0000   1.0000   1.0000   1.0000
     1.0000   1.0000   1.0000   1.0000   1.0000   1.0000   1.0000   1.0000
     1.0000   1.0000   1.0000   0.9938   0.0000   0.0000   0.0000   0.0000
     0.0000   0.0000   0.0000   0.0000   0.0000   0.0000   0.0000   0.0000
     0.0000   0.0000   0.0000   0.0000   0.0000   0.0000   0.0000   0.0000
     0.0000   0.0000   0.0000   0.0000   0.0000   0.0000   0.0000   0.0000
     0.0000   0.0000   0.0000   0.0000   0.0000   0.0000   0.0000   0.0000
     0.0000   0.0000   0.0000   0.0000   0.0000   0.0000   0.0000   0.0000
     0.0000   0.0000   0.0000   0.0000

          k =-0.2500-0.3672-0.0813 (  9302 PWs)   bands (ev):

   -31.1973 -15.7153 -15.6956 -11.6699 -11.4988 -11.4262  -7.6802  -7.5039
    -7.3082  -7.2151  -7.1604  -6.7977  -6.7768  -1.2869  -1.2836  -1.1257
    -1.0336  -0.8961  -0.8226   3.6030   4.0618   4.2951   4.7715   4.8387
     5.0375   5.1215   5.3576   5.6999   5.8333   6.1814   6.3258   6.3669
     6.5182   6.6503   6.7825   7.3780   7.4479   7.6723   7.8703   7.9790
     8.0185   8.2955   8.4322   8.5318   8.6049   8.6678   8.7706   8.9020
     8.9545   9.0465   9.2017   9.4948  10.5543  10.7025  11.1893  13.4562
    14.0489  14.6986  15.4629  15.6775  16.0957  16.4419  16.5719  16.8428
    16.9410  17.0391  17.3086  17.5338  17.7727  17.9522  18.4173  18.5666
    19.5845  19.7769  20.3052  20.4563  20.7454  20.9929  21.7266  22.0620
    22.6224  23.2257  23.5845  23.9020  24.3089  24.6885  24.8535  24.9925
    25.7554  25.9426  26.0717  26.3869  26.7157  27.1511  27.2635  27.7366
    27.9195  28.1457  28.4756  28.8908

     occupation numbers 
     1.0000   1.0000   1.0000   1.0000   1.0000   1.0000   1.0000   1.0000
     1.0000   1.0000   1.0000   1.0000   1.0000   1.0000   1.0000   1.0000
     1.0000   1.0000   1.0000   1.0000   1.0000   1.0000   1.0000   1.0000
     1.0000   1.0000   1.0000   1.0000   1.0000   1.0000   1.0000   1.0000
     1.0000   1.0000   1.0000   1.0000   1.0000   1.0000   1.0000   1.0000
     1.0000   1.0000   1.0000   1.0000   1.0000   1.0000   1.0000   1.0000
     1.0000   1.0000   1.0000   0.9924   0.0000   0.0000   0.0000   0.0000
     0.0000   0.0000   0.0000   0.0000   0.0000   0.0000   0.0000   0.0000
     0.0000   0.0000   0.0000   0.0000   0.0000   0.0000   0.0000   0.0000
     0.0000   0.0000   0.0000   0.0000   0.0000   0.0000   0.0000   0.0000
     0.0000   0.0000   0.0000   0.0000   0.0000   0.0000   0.0000   0.0000
     0.0000   0.0000   0.0000   0.0000   0.0000   0.0000   0.0000   0.0000
     0.0000   0.0000   0.0000   0.0000

          k =-0.2500-0.2448 0.0000 (  9303 PWs)   bands (ev):

   -31.2014 -15.7499 -15.7301 -11.5201 -11.5045 -11.4860  -7.7772  -7.5836
    -7.3978  -7.3131  -7.1632  -6.7552  -6.6434  -1.2664  -1.2189  -1.0885
    -1.0387  -0.6846  -0.6599   3.9431   4.3617   4.8474   4.8731   4.8798
     5.0680   5.5059   5.5890   5.6488   5.8558   6.2181   6.3320   6.5168
     6.6069   6.8688   6.9316   7.2555   7.3791   7.5361   7.6344   7.8436
     7.8458   8.2236   8.3134   8.3775   8.4340   8.4417   8.7137   8.7554
     8.8097   8.8390   9.3469   9.5093  10.1850  10.3888  10.6179  13.5690
    14.1538  14.4908  15.1688  15.8608  16.0140  16.0919  16.3790  16.5059
    16.5729  16.6344  17.0687  17.5990  17.6334  17.7291  18.2623  18.8715
    19.0647  19.5264  20.0583  20.1921  20.3128  21.0712  21.7278  21.9027
    22.7705  23.1992  23.9730  24.4541  24.5019  24.7600  25.0828  25.6439
    26.0270  26.2736  26.4125  26.6528  27.1775  27.3180  27.3398  27.5770
    28.0337  28.3985  28.6202  28.6398

     occupation numbers 
     1.0000   1.0000   1.0000   1.0000   1.0000   1.0000   1.0000   1.0000
     1.0000   1.0000   1.0000   1.0000   1.0000   1.0000   1.0000   1.0000
     1.0000   1.0000   1.0000   1.0000   1.0000   1.0000   1.0000   1.0000
     1.0000   1.0000   1.0000   1.0000   1.0000   1.0000   1.0000   1.0000
     1.0000   1.0000   1.0000   1.0000   1.0000   1.0000   1.0000   1.0000
     1.0000   1.0000   1.0000   1.0000   1.0000   1.0000   1.0000   1.0000
     1.0000   1.0000   1.0000   0.9886   0.0000   0.0000   0.0000   0.0000
     0.0000   0.0000   0.0000   0.0000   0.0000   0.0000   0.0000   0.0000
     0.0000   0.0000   0.0000   0.0000   0.0000   0.0000   0.0000   0.0000
     0.0000   0.0000   0.0000   0.0000   0.0000   0.0000   0.0000   0.0000
     0.0000   0.0000   0.0000   0.0000   0.0000   0.0000   0.0000   0.0000
     0.0000   0.0000   0.0000   0.0000   0.0000   0.0000   0.0000   0.0000
     0.0000   0.0000   0.0000   0.0000

          k =-0.2500-0.2448 0.0813 (  9296 PWs)   bands (ev):

   -31.2014 -15.7502 -15.7298 -11.5201 -11.5045 -11.4860  -7.7763  -7.5860
    -7.3965  -7.3117  -7.1635  -6.7576  -6.6420  -1.2645  -1.2209  -1.0857
    -1.0411  -0.6884  -0.6564   3.9570   4.3417   4.8497   4.8645   4.8889
     5.0686   5.5027   5.5932   5.6284   5.8966   6.2262   6.3414   6.5019
     6.5718   6.7902   6.9340   7.3782   7.3896   7.5455   7.6331   7.7773
     7.8955   8.2288   8.2927   8.4169   8.4286   8.4554   8.6521   8.7844
     8.8059   8.8617   9.2733   9.4800  10.1940  10.3831  10.6647  13.5982
    14.1219  14.5027  15.2483  15.7743  15.9199  16.0949  16.2065  16.3812
    16.6879  16.7847  17.2136  17.5576  17.6384  17.8044  18.3549  18.7632
    19.1554  19.5295  19.9203  20.1203  20.4270  21.1711  21.8264  21.8984
    22.5230  23.0530  23.5150  24.1130  24.5937  25.0247  25.6443  25.8784
    26.0002  26.3412  26.5879  26.6931  27.0997  27.2109  27.4064  27.4992
    27.9344  28.4170  28.6721  28.7456

     occupation numbers 
     1.0000   1.0000   1.0000   1.0000   1.0000   1.0000   1.0000   1.0000
     1.0000   1.0000   1.0000   1.0000   1.0000   1.0000   1.0000   1.0000
     1.0000   1.0000   1.0000   1.0000   1.0000   1.0000   1.0000   1.0000
     1.0000   1.0000   1.0000   1.0000   1.0000   1.0000   1.0000   1.0000
     1.0000   1.0000   1.0000   1.0000   1.0000   1.0000   1.0000   1.0000
     1.0000   1.0000   1.0000   1.0000   1.0000   1.0000   1.0000   1.0000
     1.0000   1.0000   1.0000   0.9951   0.0000   0.0000   0.0000   0.0000
     0.0000   0.0000   0.0000   0.0000   0.0000   0.0000   0.0000   0.0000
     0.0000   0.0000   0.0000   0.0000   0.0000   0.0000   0.0000   0.0000
     0.0000   0.0000   0.0000   0.0000   0.0000   0.0000   0.0000   0.0000
     0.0000   0.0000   0.0000   0.0000   0.0000   0.0000   0.0000   0.0000
     0.0000   0.0000   0.0000   0.0000   0.0000   0.0000   0.0000   0.0000
     0.0000   0.0000   0.0000   0.0000

          k =-0.2500-0.2448-0.1626 (  9288 PWs)   bands (ev):

   -31.2014 -15.7506 -15.7294 -11.5201 -11.5046 -11.4860  -7.7753  -7.5885
    -7.3952  -7.3103  -7.1637  -6.7599  -6.6407  -1.2626  -1.2230  -1.0827
    -1.0438  -0.6916  -0.6536   3.9725   4.3202   4.8547   4.8571   4.8942
     5.0691   5.4994   5.6044   5.6046   5.9369   6.2347   6.3684   6.4530
     6.5431   6.7417   6.9366   7.3807   7.5550   7.5581   7.6032   7.6926
     7.9304   8.2329   8.2836   8.4215   8.4376   8.5164   8.5747   8.7911
     8.8024   8.8979   9.1793   9.4620  10.2030  10.3777  10.7068  13.6313
    14.0857  14.5150  15.3967  15.6284  15.8046  16.0410  16.1709  16.3377
    16.7715  16.8417  17.3536  17.4688  17.6778  17.8791  18.4796  18.6587
    19.2020  19.6302  19.6582  20.2095  20.3884  21.5037  21.7564  21.9874
    22.0284  23.0339  23.1783  24.1366  24.8320  24.8368  25.7302  26.0755
    26.1446  26.3428  26.6864  26.9861  27.0901  27.1459  27.4687  27.5189
    27.9366  28.2366  28.7598  28.8595

     occupation numbers 
     1.0000   1.0000   1.0000   1.0000   1.0000   1.0000   1.0000   1.0000
     1.0000   1.0000   1.0000   1.0000   1.0000   1.0000   1.0000   1.0000
     1.0000   1.0000   1.0000   1.0000   1.0000   1.0000   1.0000   1.0000
     1.0000   1.0000   1.0000   1.0000   1.0000   1.0000   1.0000   1.0000
     1.0000   1.0000   1.0000   1.0000   1.0000   1.0000   1.0000   1.0000
     1.0000   1.0000   1.0000   1.0000   1.0000   1.0000   1.0000   1.0000
     1.0000   1.0000   1.0000   0.9972   0.0000   0.0000   0.0000   0.0000
     0.0000   0.0000   0.0000   0.0000   0.0000   0.0000   0.0000   0.0000
     0.0000   0.0000   0.0000   0.0000   0.0000   0.0000   0.0000   0.0000
     0.0000   0.0000   0.0000   0.0000   0.0000   0.0000   0.0000   0.0000
     0.0000   0.0000   0.0000   0.0000   0.0000   0.0000   0.0000   0.0000
     0.0000   0.0000   0.0000   0.0000   0.0000   0.0000   0.0000   0.0000
     0.0000   0.0000   0.0000   0.0000

          k =-0.2500-0.2448-0.0813 (  9296 PWs)   bands (ev):

   -31.2014 -15.7502 -15.7298 -11.5201 -11.5045 -11.4860  -7.7763  -7.5860
    -7.3965  -7.3117  -7.1635  -6.7576  -6.6420  -1.2645  -1.2209  -1.0857
    -1.0411  -0.6884  -0.6564   3.9570   4.3417   4.8497   4.8645   4.8889
     5.0686   5.5027   5.5932   5.6284   5.8966   6.2262   6.3414   6.5019
     6.5718   6.7902   6.9340   7.3782   7.3896   7.5455   7.6331   7.7773
     7.8955   8.2288   8.2927   8.4169   8.4286   8.4554   8.6521   8.7844
     8.8059   8.8617   9.2733   9.4800  10.1940  10.3831  10.6647  13.5982
    14.1219  14.5027  15.2483  15.7743  15.9199  16.0949  16.2065  16.3812
    16.6879  16.7847  17.2136  17.5576  17.6384  17.8044  18.3549  18.7632
    19.1554  19.5295  19.9203  20.1203  20.4270  21.1711  21.8264  21.8984
    22.5230  23.0530  23.5150  24.1130  24.5937  25.0247  25.6443  25.8784
    26.0002  26.3412  26.5879  26.6931  27.0997  27.2109  27.4064  27.4992
    27.9344  28.4170  28.6721  28.7456

     occupation numbers 
     1.0000   1.0000   1.0000   1.0000   1.0000   1.0000   1.0000   1.0000
     1.0000   1.0000   1.0000   1.0000   1.0000   1.0000   1.0000   1.0000
     1.0000   1.0000   1.0000   1.0000   1.0000   1.0000   1.0000   1.0000
     1.0000   1.0000   1.0000   1.0000   1.0000   1.0000   1.0000   1.0000
     1.0000   1.0000   1.0000   1.0000   1.0000   1.0000   1.0000   1.0000
     1.0000   1.0000   1.0000   1.0000   1.0000   1.0000   1.0000   1.0000
     1.0000   1.0000   1.0000   0.9951   0.0000   0.0000   0.0000   0.0000
     0.0000   0.0000   0.0000   0.0000   0.0000   0.0000   0.0000   0.0000
     0.0000   0.0000   0.0000   0.0000   0.0000   0.0000   0.0000   0.0000
     0.0000   0.0000   0.0000   0.0000   0.0000   0.0000   0.0000   0.0000
     0.0000   0.0000   0.0000   0.0000   0.0000   0.0000   0.0000   0.0000
     0.0000   0.0000   0.0000   0.0000   0.0000   0.0000   0.0000   0.0000
     0.0000   0.0000   0.0000   0.0000

          k =-0.2500-0.1224 0.0000 (  9283 PWs)   bands (ev):

   -31.2054 -15.7841 -15.7638 -11.5780 -11.5235 -11.2988  -8.0310  -7.5698
    -7.5361  -7.2393  -7.1999  -6.7349  -6.5427  -1.2414  -1.0569  -0.9992
    -0.9410  -0.6135  -0.5965   4.2648   4.4818   4.9961   5.0209   5.1262
     5.4008   5.7108   5.9968   6.0492   6.1285   6.2263   6.2497   6.5370
     6.8893   6.9003   7.2290   7.2850   7.3488   7.3521   7.4150   7.6261
     7.8195   7.9424   8.0294   8.2625   8.2815   8.3976   8.5050   8.5438
     8.8290   8.8537   9.2307   9.4129   9.5105   9.8622   9.8672  13.5348
    13.8216  14.7448  15.2464  15.2497  15.4642  16.1752  16.3036  16.5037
    16.5404  16.8937  16.9520  17.5987  17.6109  17.8214  18.4642  18.5821
    18.6577  18.7937  19.6205  19.9053  20.6829  21.0882  21.9801  22.3179
    22.7076  23.0124  23.8979  24.0041  24.1633  24.4838  25.0575  25.1335
    26.0455  26.3529  26.7044  27.0046  27.0531  27.5729  27.8048  28.0102
    28.1193  28.2457  28.8469  29.1479

     occupation numbers 
     1.0000   1.0000   1.0000   1.0000   1.0000   1.0000   1.0000   1.0000
     1.0000   1.0000   1.0000   1.0000   1.0000   1.0000   1.0000   1.0000
     1.0000   1.0000   1.0000   1.0000   1.0000   1.0000   1.0000   1.0000
     1.0000   1.0000   1.0000   1.0000   1.0000   1.0000   1.0000   1.0000
     1.0000   1.0000   1.0000   1.0000   1.0000   1.0000   1.0000   1.0000
     1.0000   1.0000   1.0000   1.0000   1.0000   1.0000   1.0000   1.0000
     1.0000   1.0000   1.0000   0.9995   0.9883   0.0822   0.0747   0.0000
     0.0000   0.0000   0.0000   0.0000   0.0000   0.0000   0.0000   0.0000
     0.0000   0.0000   0.0000   0.0000   0.0000   0.0000   0.0000   0.0000
     0.0000   0.0000   0.0000   0.0000   0.0000   0.0000   0.0000   0.0000
     0.0000   0.0000   0.0000   0.0000   0.0000   0.0000   0.0000   0.0000
     0.0000   0.0000   0.0000   0.0000   0.0000   0.0000   0.0000   0.0000
     0.0000   0.0000   0.0000   0.0000

          k =-0.2500-0.1224 0.0813 (  9294 PWs)   bands (ev):

   -31.2054 -15.7845 -15.7634 -11.5780 -11.5235 -11.2989  -8.0305  -7.5795
    -7.5251  -7.2380  -7.2030  -6.7365  -6.5410  -1.2374  -1.0623  -1.0009
    -0.9382  -0.6155  -0.5946   4.2776   4.4719   4.9856   5.0392   5.1101
     5.4099   5.6990   6.0117   6.0386   6.1363   6.2326   6.2690   6.5428
     6.7481   6.9333   7.2193   7.2991   7.3533   7.4033   7.4549   7.6089
     7.8392   7.9494   8.0277   8.2612   8.2926   8.3895   8.4921   8.5381
     8.8343   8.8779   9.1994   9.3427   9.5566   9.7779   9.9539  13.5540
    13.8291  14.7520  15.1418  15.2712  15.5426  15.9830  16.2569  16.5263
    16.6786  16.7949  17.1491  17.5485  17.6552  17.7963  18.4554  18.5153
    18.7366  18.9454  19.5408  20.0491  20.5300  21.1391  22.0043  22.1429
    22.7609  22.8784  23.2087  24.0184  24.1964  24.9668  25.0770  25.5231
    26.0687  26.3692  26.7291  26.8078  27.1429  27.6792  27.8118  28.0366
    28.2135  28.3673  28.9391  29.0465

     occupation numbers 
     1.0000   1.0000   1.0000   1.0000   1.0000   1.0000   1.0000   1.0000
     1.0000   1.0000   1.0000   1.0000   1.0000   1.0000   1.0000   1.0000
     1.0000   1.0000   1.0000   1.0000   1.0000   1.0000   1.0000   1.0000
     1.0000   1.0000   1.0000   1.0000   1.0000   1.0000   1.0000   1.0000
     1.0000   1.0000   1.0000   1.0000   1.0000   1.0000   1.0000   1.0000
     1.0000   1.0000   1.0000   1.0000   1.0000   1.0000   1.0000   1.0000
     1.0000   1.0000   1.0000   1.0000   0.9630   0.3036   0.0096   0.0000
     0.0000   0.0000   0.0000   0.0000   0.0000   0.0000   0.0000   0.0000
     0.0000   0.0000   0.0000   0.0000   0.0000   0.0000   0.0000   0.0000
     0.0000   0.0000   0.0000   0.0000   0.0000   0.0000   0.0000   0.0000
     0.0000   0.0000   0.0000   0.0000   0.0000   0.0000   0.0000   0.0000
     0.0000   0.0000   0.0000   0.0000   0.0000   0.0000   0.0000   0.0000
     0.0000   0.0000   0.0000   0.0000

          k =-0.2500-0.1224-0.1626 (  9292 PWs)   bands (ev):

   -31.2054 -15.7849 -15.7630 -11.5781 -11.5235 -11.2989  -8.0299  -7.5863
    -7.5170  -7.2365  -7.2064  -6.7381  -6.5394  -1.2331  -1.0677  -1.0025
    -0.9356  -0.6173  -0.5930   4.2920   4.4603   4.9788   5.0667   5.0809
     5.4195   5.6872   6.0255   6.0284   6.1444   6.2489   6.2860   6.5751
     6.6183   6.9336   7.2140   7.3040   7.3590   7.4301   7.5363   7.5661
     7.8696   7.9204   8.0561   8.2582   8.3232   8.3557   8.4819   8.5316
     8.8261   8.9295   9.1702   9.2655   9.6035   9.7341   9.9907  13.5735
    13.8366  14.7586  15.0854  15.2907  15.5236  15.9540  16.1821  16.4768
    16.7926  16.8231  17.1866  17.5656  17.6692  17.7766  18.4067  18.5928
    18.7162  19.1760  19.3929  20.2762  20.3182  21.2720  21.7389  22.1526
    22.4819  22.8565  23.0481  24.0678  24.3938  24.9571  25.1894  25.4731
    26.0835  26.5067  26.6104  27.1989  27.2145  27.7031  27.8035  28.1990
    28.2698  28.3950  28.9543  29.1107

     occupation numbers 
     1.0000   1.0000   1.0000   1.0000   1.0000   1.0000   1.0000   1.0000
     1.0000   1.0000   1.0000   1.0000   1.0000   1.0000   1.0000   1.0000
     1.0000   1.0000   1.0000   1.0000   1.0000   1.0000   1.0000   1.0000
     1.0000   1.0000   1.0000   1.0000   1.0000   1.0000   1.0000   1.0000
     1.0000   1.0000   1.0000   1.0000   1.0000   1.0000   1.0000   1.0000
     1.0000   1.0000   1.0000   1.0000   1.0000   1.0000   1.0000   1.0000
     1.0000   1.0000   1.0000   1.0000   0.9030   0.4766   0.0032   0.0000
     0.0000   0.0000   0.0000   0.0000   0.0000   0.0000   0.0000   0.0000
     0.0000   0.0000   0.0000   0.0000   0.0000   0.0000   0.0000   0.0000
     0.0000   0.0000   0.0000   0.0000   0.0000   0.0000   0.0000   0.0000
     0.0000   0.0000   0.0000   0.0000   0.0000   0.0000   0.0000   0.0000
     0.0000   0.0000   0.0000   0.0000   0.0000   0.0000   0.0000   0.0000
     0.0000   0.0000   0.0000   0.0000

          k =-0.2500-0.1224-0.0813 (  9294 PWs)   bands (ev):

   -31.2054 -15.7845 -15.7634 -11.5780 -11.5235 -11.2989  -8.0305  -7.5795
    -7.5251  -7.2380  -7.2030  -6.7365  -6.5410  -1.2374  -1.0623  -1.0009
    -0.9382  -0.6155  -0.5946   4.2776   4.4719   4.9856   5.0392   5.1101
     5.4099   5.6990   6.0117   6.0386   6.1363   6.2326   6.2690   6.5428
     6.7481   6.9333   7.2193   7.2991   7.3533   7.4033   7.4549   7.6089
     7.8392   7.9494   8.0277   8.2612   8.2926   8.3895   8.4921   8.5381
     8.8343   8.8779   9.1994   9.3427   9.5566   9.7779   9.9539  13.5540
    13.8291  14.7520  15.1418  15.2712  15.5426  15.9830  16.2569  16.5263
    16.6786  16.7949  17.1491  17.5485  17.6552  17.7963  18.4554  18.5153
    18.7366  18.9454  19.5408  20.0491  20.5300  21.1391  22.0043  22.1429
    22.7609  22.8784  23.2087  24.0184  24.1964  24.9668  25.0770  25.5231
    26.0687  26.3692  26.7291  26.8078  27.1429  27.6792  27.8118  28.0366
    28.2135  28.3673  28.9391  29.0465

     occupation numbers 
     1.0000   1.0000   1.0000   1.0000   1.0000   1.0000   1.0000   1.0000
     1.0000   1.0000   1.0000   1.0000   1.0000   1.0000   1.0000   1.0000
     1.0000   1.0000   1.0000   1.0000   1.0000   1.0000   1.0000   1.0000
     1.0000   1.0000   1.0000   1.0000   1.0000   1.0000   1.0000   1.0000
     1.0000   1.0000   1.0000   1.0000   1.0000   1.0000   1.0000   1.0000
     1.0000   1.0000   1.0000   1.0000   1.0000   1.0000   1.0000   1.0000
     1.0000   1.0000   1.0000   1.0000   0.9630   0.3036   0.0096   0.0000
     0.0000   0.0000   0.0000   0.0000   0.0000   0.0000   0.0000   0.0000
     0.0000   0.0000   0.0000   0.0000   0.0000   0.0000   0.0000   0.0000
     0.0000   0.0000   0.0000   0.0000   0.0000   0.0000   0.0000   0.0000
     0.0000   0.0000   0.0000   0.0000   0.0000   0.0000   0.0000   0.0000
     0.0000   0.0000   0.0000   0.0000   0.0000   0.0000   0.0000   0.0000
     0.0000   0.0000   0.0000   0.0000

          k =-0.1250 0.0000 0.0000 (  9266 PWs)   bands (ev):

   -31.2123 -15.8467 -15.8227 -11.6950 -11.3031 -11.2173  -8.3872  -7.5470
    -7.5043  -7.2964  -7.1075  -6.6074  -6.4905  -1.1421  -1.0993  -0.8467
    -0.8201  -0.7062  -0.6939   4.7810   4.8084   4.9559   5.0662   5.2480
     5.2523   6.1178   6.2338   6.3031   6.4153   6.5557   6.7871   6.8848
     6.8863   7.1656   7.2041   7.2254   7.4488   7.5668   7.5812   7.6153
     7.6512   7.8502   7.9392   8.0116   8.1302   8.2185   8.4914   8.5026
     8.8514   9.0905   9.1396   9.2101   9.2777   9.3430   9.4322  12.7232
    13.2889  14.2361  14.3458  15.0302  15.0492  15.8407  16.0888  16.2048
    16.5275  16.8096  16.9658  17.1001  17.6861  18.0933  18.1010  18.2128
    18.2283  18.7723  19.0874  19.7082  20.6586  21.7654  21.9344  22.2894
    22.4775  22.9900  23.1620  24.1600  24.2648  24.5380  24.7614  24.7674
    25.5793  25.6583  26.0838  27.2061  27.2148  27.5777  27.9173  27.9586
    28.5941  29.0289  29.3491  29.4516

     occupation numbers 
     1.0000   1.0000   1.0000   1.0000   1.0000   1.0000   1.0000   1.0000
     1.0000   1.0000   1.0000   1.0000   1.0000   1.0000   1.0000   1.0000
     1.0000   1.0000   1.0000   1.0000   1.0000   1.0000   1.0000   1.0000
     1.0000   1.0000   1.0000   1.0000   1.0000   1.0000   1.0000   1.0000
     1.0000   1.0000   1.0000   1.0000   1.0000   1.0000   1.0000   1.0000
     1.0000   1.0000   1.0000   1.0000   1.0000   1.0000   1.0000   1.0000
     1.0000   1.0000   1.0000   1.0000   1.0000   1.0000   0.9990   0.0000
     0.0000   0.0000   0.0000   0.0000   0.0000   0.0000   0.0000   0.0000
     0.0000   0.0000   0.0000   0.0000   0.0000   0.0000   0.0000   0.0000
     0.0000   0.0000   0.0000   0.0000   0.0000   0.0000   0.0000   0.0000
     0.0000   0.0000   0.0000   0.0000   0.0000   0.0000   0.0000   0.0000
     0.0000   0.0000   0.0000   0.0000   0.0000   0.0000   0.0000   0.0000
     0.0000   0.0000   0.0000   0.0000

          k =-0.1250 0.0000 0.0813 (  9266 PWs)   bands (ev):

   -31.2123 -15.8472 -15.8221 -11.6951 -11.3031 -11.2173  -8.3858  -7.5520
    -7.5013  -7.2965  -7.1073  -6.6095  -6.4877  -1.1360  -1.1057  -0.8474
    -0.8193  -0.7069  -0.6935   4.7851   4.8249   4.9546   5.0498   5.2494
     5.2534   6.1145   6.2348   6.2972   6.4149   6.5791   6.7454   6.8842
     6.8868   7.1554   7.2088   7.2254   7.4592   7.5571   7.5587   7.6265
     7.6641   7.8531   7.9381   8.0424   8.1497   8.2071   8.5013   8.5464
     8.7942   9.1139   9.1354   9.1744   9.2953   9.3452   9.4062  12.8242
    13.2425  14.1492  14.4282  14.9047  15.0304  15.5799  16.1593  16.4233
    16.5902  16.9711  16.9913  17.1164  17.6259  18.0642  18.1053  18.1500
    18.1813  18.7222  19.3682  19.7580  20.5222  21.3815  22.0088  22.3895
    22.4109  22.8981  23.0373  24.1802  24.2943  24.5621  24.6450  24.8052
    25.8219  25.9213  26.4218  27.0364  27.0966  27.3544  27.9319  28.2828
    28.7320  29.0100  29.2914  29.3502

     occupation numbers 
     1.0000   1.0000   1.0000   1.0000   1.0000   1.0000   1.0000   1.0000
     1.0000   1.0000   1.0000   1.0000   1.0000   1.0000   1.0000   1.0000
     1.0000   1.0000   1.0000   1.0000   1.0000   1.0000   1.0000   1.0000
     1.0000   1.0000   1.0000   1.0000   1.0000   1.0000   1.0000   1.0000
     1.0000   1.0000   1.0000   1.0000   1.0000   1.0000   1.0000   1.0000
     1.0000   1.0000   1.0000   1.0000   1.0000   1.0000   1.0000   1.0000
     1.0000   1.0000   1.0000   1.0000   1.0000   1.0000   0.9996   0.0000
     0.0000   0.0000   0.0000   0.0000   0.0000   0.0000   0.0000   0.0000
     0.0000   0.0000   0.0000   0.0000   0.0000   0.0000   0.0000   0.0000
     0.0000   0.0000   0.0000   0.0000   0.0000   0.0000   0.0000   0.0000
     0.0000   0.0000   0.0000   0.0000   0.0000   0.0000   0.0000   0.0000
     0.0000   0.0000   0.0000   0.0000   0.0000   0.0000   0.0000   0.0000
     0.0000   0.0000   0.0000   0.0000

          k =-0.1250 0.0000-0.1626 (  9286 PWs)   bands (ev):

   -31.2123 -15.8477 -15.8216 -11.6952 -11.3031 -11.2173  -8.3844  -7.5566
    -7.4988  -7.2966  -7.1071  -6.6115  -6.4849  -1.1226  -1.1194  -0.8481
    -0.8186  -0.7076  -0.6931   4.7874   4.8468   4.9533   5.0297   5.2508
     5.2545   6.1107   6.2357   6.2922   6.4144   6.6272   6.6800   6.8837
     6.8872   7.1414   7.2184   7.2254   7.4795   7.5230   7.5528   7.6358
     7.6743   7.8591   7.9245   8.0988   8.1565   8.1962   8.5106   8.6144
     8.7179   9.1310   9.1312   9.1350   9.3355   9.3473   9.3597  13.0209
    13.0959  14.0777  14.6006  14.6893  15.0305  15.3723  16.3590  16.4557
    16.6494  17.0024  17.1042  17.1458  17.5557  18.0107  18.1028  18.1544
    18.1697  18.6666  19.6195  19.9663  20.2035  21.3612  21.4723  22.5615
    22.7343  22.7445  22.8419  24.2408  24.3410  24.5331  24.5448  24.8293
    25.8537  26.1956  26.6148  26.9196  27.2998  27.6809  27.9340  28.0812
    28.7583  28.8220  29.0029  29.4642

     occupation numbers 
     1.0000   1.0000   1.0000   1.0000   1.0000   1.0000   1.0000   1.0000
     1.0000   1.0000   1.0000   1.0000   1.0000   1.0000   1.0000   1.0000
     1.0000   1.0000   1.0000   1.0000   1.0000   1.0000   1.0000   1.0000
     1.0000   1.0000   1.0000   1.0000   1.0000   1.0000   1.0000   1.0000
     1.0000   1.0000   1.0000   1.0000   1.0000   1.0000   1.0000   1.0000
     1.0000   1.0000   1.0000   1.0000   1.0000   1.0000   1.0000   1.0000
     1.0000   1.0000   1.0000   1.0000   1.0000   1.0000   0.9999   0.0000
     0.0000   0.0000   0.0000   0.0000   0.0000   0.0000   0.0000   0.0000
     0.0000   0.0000   0.0000   0.0000   0.0000   0.0000   0.0000   0.0000
     0.0000   0.0000   0.0000   0.0000   0.0000   0.0000   0.0000   0.0000
     0.0000   0.0000   0.0000   0.0000   0.0000   0.0000   0.0000   0.0000
     0.0000   0.0000   0.0000   0.0000   0.0000   0.0000   0.0000   0.0000
     0.0000   0.0000   0.0000   0.0000

          k =-0.1250 0.0000-0.0813 (  9266 PWs)   bands (ev):

   -31.2123 -15.8472 -15.8221 -11.6951 -11.3031 -11.2173  -8.3858  -7.5520
    -7.5013  -7.2965  -7.1073  -6.6095  -6.4877  -1.1360  -1.1057  -0.8474
    -0.8193  -0.7069  -0.6935   4.7851   4.8249   4.9546   5.0498   5.2494
     5.2534   6.1145   6.2348   6.2972   6.4149   6.5791   6.7454   6.8842
     6.8868   7.1554   7.2088   7.2254   7.4592   7.5571   7.5587   7.6265
     7.6641   7.8531   7.9381   8.0424   8.1497   8.2071   8.5013   8.5464
     8.7942   9.1139   9.1354   9.1744   9.2953   9.3452   9.4062  12.8242
    13.2425  14.1492  14.4282  14.9047  15.0304  15.5799  16.1593  16.4233
    16.5902  16.9711  16.9913  17.1164  17.6259  18.0642  18.1053  18.1500
    18.1813  18.7222  19.3682  19.7580  20.5222  21.3815  22.0088  22.3895
    22.4109  22.8981  23.0373  24.1802  24.2943  24.5621  24.6450  24.8052
    25.8219  25.9213  26.4218  27.0364  27.0966  27.3544  27.9319  28.2828
    28.7320  29.0100  29.2914  29.3502

     occupation numbers 
     1.0000   1.0000   1.0000   1.0000   1.0000   1.0000   1.0000   1.0000
     1.0000   1.0000   1.0000   1.0000   1.0000   1.0000   1.0000   1.0000
     1.0000   1.0000   1.0000   1.0000   1.0000   1.0000   1.0000   1.0000
     1.0000   1.0000   1.0000   1.0000   1.0000   1.0000   1.0000   1.0000
     1.0000   1.0000   1.0000   1.0000   1.0000   1.0000   1.0000   1.0000
     1.0000   1.0000   1.0000   1.0000   1.0000   1.0000   1.0000   1.0000
     1.0000   1.0000   1.0000   1.0000   1.0000   1.0000   0.9996   0.0000
     0.0000   0.0000   0.0000   0.0000   0.0000   0.0000   0.0000   0.0000
     0.0000   0.0000   0.0000   0.0000   0.0000   0.0000   0.0000   0.0000
     0.0000   0.0000   0.0000   0.0000   0.0000   0.0000   0.0000   0.0000
     0.0000   0.0000   0.0000   0.0000   0.0000   0.0000   0.0000   0.0000
     0.0000   0.0000   0.0000   0.0000   0.0000   0.0000   0.0000   0.0000
     0.0000   0.0000   0.0000   0.0000

          k =-0.1250 0.1224 0.0000 (  9267 PWs)   bands (ev):

   -31.2106 -15.8311 -15.8075 -11.6647 -11.3151 -11.2939  -8.2770  -7.5635
    -7.4648  -7.2784  -7.1330  -6.6468  -6.5454  -1.1264  -1.0977  -0.9267
    -0.9157  -0.6229  -0.6121   4.6825   4.7846   4.9404   5.0576   5.1110
     5.3152   5.7317   6.1384   6.1780   6.3119   6.4534   6.6022   6.6205
     6.9461   7.0631   7.1295   7.2218   7.4289   7.4773   7.5127   7.6542
     7.9344   7.9346   8.0432   8.0884   8.1405   8.1907   8.3309   8.5989
     8.8433   9.0575   9.2717   9.3036   9.4242   9.5960   9.7873  13.0026
    13.4223  14.5331  14.5706  14.9255  15.1416  15.9788  16.2053  16.2351
    16.2433  16.7014  17.1114  17.1414  17.7010  17.9790  18.1643  18.3027
    18.4468  19.0903  19.3364  19.7776  20.5825  21.0775  22.0990  22.3522
    22.4480  23.1939  23.7506  23.8623  23.9749  24.5043  24.9514  25.2029
    25.5580  25.7107  26.2417  26.9915  27.1381  27.8154  27.8337  28.1237
    28.5455  28.9696  29.0278  29.1578

     occupation numbers 
     1.0000   1.0000   1.0000   1.0000   1.0000   1.0000   1.0000   1.0000
     1.0000   1.0000   1.0000   1.0000   1.0000   1.0000   1.0000   1.0000
     1.0000   1.0000   1.0000   1.0000   1.0000   1.0000   1.0000   1.0000
     1.0000   1.0000   1.0000   1.0000   1.0000   1.0000   1.0000   1.0000
     1.0000   1.0000   1.0000   1.0000   1.0000   1.0000   1.0000   1.0000
     1.0000   1.0000   1.0000   1.0000   1.0000   1.0000   1.0000   1.0000
     1.0000   1.0000   1.0000   1.0000   0.9992   0.9158   0.2706   0.0000
     0.0000   0.0000   0.0000   0.0000   0.0000   0.0000   0.0000   0.0000
     0.0000   0.0000   0.0000   0.0000   0.0000   0.0000   0.0000   0.0000
     0.0000   0.0000   0.0000   0.0000   0.0000   0.0000   0.0000   0.0000
     0.0000   0.0000   0.0000   0.0000   0.0000   0.0000   0.0000   0.0000
     0.0000   0.0000   0.0000   0.0000   0.0000   0.0000   0.0000   0.0000
     0.0000   0.0000   0.0000   0.0000

          k =-0.1250 0.1224 0.0813 (  9256 PWs)   bands (ev):

   -31.2106 -15.8316 -15.8070 -11.6648 -11.3151 -11.2938  -8.2757  -7.5655
    -7.4645  -7.2784  -7.1331  -6.6492  -6.5423  -1.1228  -1.1020  -0.9249
    -0.9164  -0.6230  -0.6127   4.7051   4.7786   4.9392   5.0514   5.0996
     5.3143   5.7277   6.1645   6.1824   6.3137   6.4318   6.6045   6.6234
     6.9137   7.0391   7.1201   7.2363   7.4603   7.4943   7.5063   7.6302
     7.9118   7.9525   8.0931   8.1078   8.1416   8.1941   8.3171   8.6147
     8.8773   9.0233   9.1706   9.3388   9.4226   9.5753   9.8228  13.0774
    13.3812  14.4496  14.6472  14.9357  15.0910  15.7031  15.9960  16.3940
    16.6346  16.7020  17.1360  17.2019  17.6886  17.9634  18.1666  18.3267
    18.4206  18.8148  19.6610  19.8622  20.4725  21.1570  22.0160  22.1909
    22.3524  22.8906  23.4166  23.9680  24.3573  24.5101  24.9335  25.2883
    25.6707  26.1514  26.2139  26.6314  27.4772  27.5278  28.0410  28.2769
    28.6981  28.8590  29.0795  29.1653

     occupation numbers 
     1.0000   1.0000   1.0000   1.0000   1.0000   1.0000   1.0000   1.0000
     1.0000   1.0000   1.0000   1.0000   1.0000   1.0000   1.0000   1.0000
     1.0000   1.0000   1.0000   1.0000   1.0000   1.0000   1.0000   1.0000
     1.0000   1.0000   1.0000   1.0000   1.0000   1.0000   1.0000   1.0000
     1.0000   1.0000   1.0000   1.0000   1.0000   1.0000   1.0000   1.0000
     1.0000   1.0000   1.0000   1.0000   1.0000   1.0000   1.0000   1.0000
     1.0000   1.0000   1.0000   1.0000   0.9993   0.9443   0.1635   0.0000
     0.0000   0.0000   0.0000   0.0000   0.0000   0.0000   0.0000   0.0000
     0.0000   0.0000   0.0000   0.0000   0.0000   0.0000   0.0000   0.0000
     0.0000   0.0000   0.0000   0.0000   0.0000   0.0000   0.0000   0.0000
     0.0000   0.0000   0.0000   0.0000   0.0000   0.0000   0.0000   0.0000
     0.0000   0.0000   0.0000   0.0000   0.0000   0.0000   0.0000   0.0000
     0.0000   0.0000   0.0000   0.0000

          k =-0.1250 0.1224-0.1626 (  9268 PWs)   bands (ev):

   -31.2106 -15.8321 -15.8065 -11.6648 -11.3151 -11.2938  -8.2744  -7.5675
    -7.4642  -7.2784  -7.1331  -6.6516  -6.5394  -1.1166  -1.1089  -0.9231
    -0.9173  -0.6232  -0.6132   4.7415   4.7603   4.9381   5.0403   5.0913
     5.3133   5.7240   6.1814   6.1948   6.3350   6.3922   6.6073   6.6268
     6.8765   7.0210   7.1193   7.2434   7.4787   7.4930   7.5590   7.5749
     7.9012   7.9606   8.1010   8.1311   8.1755   8.2275   8.2806   8.6332
     8.9243   8.9744   9.1108   9.2842   9.4978   9.5286   9.8499  13.2337
    13.2573  14.3833  14.7984  14.9201  14.9628  15.5015  16.0569  16.3935
    16.7151  16.8584  17.1666  17.2094  17.7113  17.9452  18.1917  18.3744
    18.3766  18.6334  19.8057  20.1696  20.2099  21.4102  21.6583  21.9733
    22.2720  22.7267  23.4538  24.0240  24.4505  24.5222  24.9085  25.5170
    25.5996  26.1283  26.1827  27.1135  27.2179  28.0191  28.1391  28.1715
    28.6495  28.8335  29.0154  29.0224

     occupation numbers 
     1.0000   1.0000   1.0000   1.0000   1.0000   1.0000   1.0000   1.0000
     1.0000   1.0000   1.0000   1.0000   1.0000   1.0000   1.0000   1.0000
     1.0000   1.0000   1.0000   1.0000   1.0000   1.0000   1.0000   1.0000
     1.0000   1.0000   1.0000   1.0000   1.0000   1.0000   1.0000   1.0000
     1.0000   1.0000   1.0000   1.0000   1.0000   1.0000   1.0000   1.0000
     1.0000   1.0000   1.0000   1.0000   1.0000   1.0000   1.0000   1.0000
     1.0000   1.0000   1.0000   1.0000   0.9917   0.9811   0.1035   0.0000
     0.0000   0.0000   0.0000   0.0000   0.0000   0.0000   0.0000   0.0000
     0.0000   0.0000   0.0000   0.0000   0.0000   0.0000   0.0000   0.0000
     0.0000   0.0000   0.0000   0.0000   0.0000   0.0000   0.0000   0.0000
     0.0000   0.0000   0.0000   0.0000   0.0000   0.0000   0.0000   0.0000
     0.0000   0.0000   0.0000   0.0000   0.0000   0.0000   0.0000   0.0000
     0.0000   0.0000   0.0000   0.0000

          k =-0.1250 0.1224-0.0813 (  9256 PWs)   bands (ev):

   -31.2106 -15.8316 -15.8070 -11.6648 -11.3151 -11.2938  -8.2757  -7.5655
    -7.4645  -7.2784  -7.1331  -6.6492  -6.5423  -1.1228  -1.1020  -0.9249
    -0.9164  -0.6230  -0.6127   4.7051   4.7786   4.9392   5.0514   5.0996
     5.3143   5.7277   6.1645   6.1824   6.3137   6.4318   6.6045   6.6234
     6.9137   7.0391   7.1201   7.2363   7.4603   7.4943   7.5063   7.6302
     7.9118   7.9525   8.0931   8.1078   8.1416   8.1941   8.3171   8.6147
     8.8773   9.0233   9.1706   9.3388   9.4226   9.5753   9.8228  13.0774
    13.3812  14.4496  14.6472  14.9357  15.0910  15.7031  15.9960  16.3940
    16.6346  16.7020  17.1360  17.2019  17.6886  17.9634  18.1666  18.3267
    18.4206  18.8148  19.6610  19.8622  20.4725  21.1570  22.0160  22.1909
    22.3524  22.8906  23.4166  23.9680  24.3573  24.5101  24.9335  25.2883
    25.6707  26.1514  26.2139  26.6314  27.4772  27.5278  28.0410  28.2769
    28.6981  28.8590  29.0795  29.1653

     occupation numbers 
     1.0000   1.0000   1.0000   1.0000   1.0000   1.0000   1.0000   1.0000
     1.0000   1.0000   1.0000   1.0000   1.0000   1.0000   1.0000   1.0000
     1.0000   1.0000   1.0000   1.0000   1.0000   1.0000   1.0000   1.0000
     1.0000   1.0000   1.0000   1.0000   1.0000   1.0000   1.0000   1.0000
     1.0000   1.0000   1.0000   1.0000   1.0000   1.0000   1.0000   1.0000
     1.0000   1.0000   1.0000   1.0000   1.0000   1.0000   1.0000   1.0000
     1.0000   1.0000   1.0000   1.0000   0.9993   0.9443   0.1635   0.0000
     0.0000   0.0000   0.0000   0.0000   0.0000   0.0000   0.0000   0.0000
     0.0000   0.0000   0.0000   0.0000   0.0000   0.0000   0.0000   0.0000
     0.0000   0.0000   0.0000   0.0000   0.0000   0.0000   0.0000   0.0000
     0.0000   0.0000   0.0000   0.0000   0.0000   0.0000   0.0000   0.0000
     0.0000   0.0000   0.0000   0.0000   0.0000   0.0000   0.0000   0.0000
     0.0000   0.0000   0.0000   0.0000

          k =-0.1250 0.2448 0.0000 (  9284 PWs)   bands (ev):

   -31.2065 -15.7931 -15.7703 -11.5882 -11.5098 -11.2909  -8.0192  -7.6427
    -7.3651  -7.2453  -7.1580  -6.7416  -6.6843  -1.1013  -1.0903  -0.9900
    -0.9624  -0.5789  -0.5596   4.3394   4.5860   4.8373   5.0051   5.0153
     5.1028   5.4625   5.7617   6.0651   6.1171   6.2073   6.3655   6.4989
     6.6255   6.9149   7.2165   7.2236   7.3071   7.3103   7.4021   7.6283
     7.9312   8.0165   8.1719   8.2697   8.4057   8.5020   8.6044   8.6279
     8.7835   8.8863   9.2973   9.4568   9.5852   9.8911  10.6080  13.6696
    13.7820  14.7677  15.0238  15.2776  15.3291  16.1863  16.2220  16.4093
    16.5371  16.5550  17.1285  17.3129  17.7663  17.7735  18.4777  18.6131
    18.6276  19.6452  19.9128  19.9245  19.9778  20.7281  21.8422  22.4867
    23.0142  23.0459  23.8873  24.1620  24.2960  24.5217  24.8535  25.2919
    25.9523  26.1320  26.5338  26.8336  26.9071  27.1313  27.6650  27.8734
    28.1371  28.3312  28.6665  28.6865

     occupation numbers 
     1.0000   1.0000   1.0000   1.0000   1.0000   1.0000   1.0000   1.0000
     1.0000   1.0000   1.0000   1.0000   1.0000   1.0000   1.0000   1.0000
     1.0000   1.0000   1.0000   1.0000   1.0000   1.0000   1.0000   1.0000
     1.0000   1.0000   1.0000   1.0000   1.0000   1.0000   1.0000   1.0000
     1.0000   1.0000   1.0000   1.0000   1.0000   1.0000   1.0000   1.0000
     1.0000   1.0000   1.0000   1.0000   1.0000   1.0000   1.0000   1.0000
     1.0000   1.0000   1.0000   0.9976   0.9318   0.0454   0.0000   0.0000
     0.0000   0.0000   0.0000   0.0000   0.0000   0.0000   0.0000   0.0000
     0.0000   0.0000   0.0000   0.0000   0.0000   0.0000   0.0000   0.0000
     0.0000   0.0000   0.0000   0.0000   0.0000   0.0000   0.0000   0.0000
     0.0000   0.0000   0.0000   0.0000   0.0000   0.0000   0.0000   0.0000
     0.0000   0.0000   0.0000   0.0000   0.0000   0.0000   0.0000   0.0000
     0.0000   0.0000   0.0000   0.0000

          k =-0.1250 0.2448 0.0813 (  9275 PWs)   bands (ev):

   -31.2065 -15.7935 -15.7699 -11.5883 -11.5098 -11.2909  -8.0180  -7.6441
    -7.3620  -7.2493  -7.1576  -6.7433  -6.6819  -1.1074  -1.0836  -0.9872
    -0.9652  -0.5783  -0.5612   4.3669   4.5574   4.8399   5.0033   5.0165
     5.1009   5.4229   5.8361   6.0457   6.1348   6.2099   6.3600   6.5001
     6.5913   6.8514   7.1816   7.2305   7.3238   7.3820   7.4159   7.6089
     7.9572   8.0230   8.1703   8.3226   8.4103   8.4843   8.5828   8.6533
     8.7962   8.8629   9.2385   9.4068   9.6307   9.8676  10.6440  13.6762
    13.7804  14.7754  15.0747  15.2662  15.3858  15.7868  16.1825  16.2541
    16.6667  16.8866  17.2045  17.3705  17.7737  17.8392  18.4842  18.5174
    18.7214  19.2347  19.8656  19.9832  20.3366  20.7413  21.9587  22.2412
    22.9419  23.0430  23.1727  24.0515  24.4388  24.9267  25.1265  25.4130
    25.9944  26.2212  26.3571  26.5678  27.1640  27.3463  27.7453  27.9293
    28.1895  28.3051  28.7001  28.8651

     occupation numbers 
     1.0000   1.0000   1.0000   1.0000   1.0000   1.0000   1.0000   1.0000
     1.0000   1.0000   1.0000   1.0000   1.0000   1.0000   1.0000   1.0000
     1.0000   1.0000   1.0000   1.0000   1.0000   1.0000   1.0000   1.0000
     1.0000   1.0000   1.0000   1.0000   1.0000   1.0000   1.0000   1.0000
     1.0000   1.0000   1.0000   1.0000   1.0000   1.0000   1.0000   1.0000
     1.0000   1.0000   1.0000   1.0000   1.0000   1.0000   1.0000   1.0000
     1.0000   1.0000   1.0000   0.9996   0.8452   0.0741   0.0000   0.0000
     0.0000   0.0000   0.0000   0.0000   0.0000   0.0000   0.0000   0.0000
     0.0000   0.0000   0.0000   0.0000   0.0000   0.0000   0.0000   0.0000
     0.0000   0.0000   0.0000   0.0000   0.0000   0.0000   0.0000   0.0000
     0.0000   0.0000   0.0000   0.0000   0.0000   0.0000   0.0000   0.0000
     0.0000   0.0000   0.0000   0.0000   0.0000   0.0000   0.0000   0.0000
     0.0000   0.0000   0.0000   0.0000

          k =-0.1250 0.2448-0.1626 (  9266 PWs)   bands (ev):

   -31.2065 -15.7939 -15.7694 -11.5884 -11.5097 -11.2909  -8.0168  -7.6454
    -7.3587  -7.2534  -7.1572  -6.7450  -6.6796  -1.1113  -1.0789  -0.9845
    -0.9680  -0.5775  -0.5629   4.4077   4.5155   4.8423   5.0018   5.0171
     5.0998   5.3919   5.9135   6.0224   6.1515   6.2126   6.3546   6.5137
     6.5307   6.8073   7.1628   7.2275   7.3381   7.4257   7.4509   7.5797
     7.9913   8.0135   8.1798   8.3668   8.4564   8.4621   8.5490   8.6736
     8.8081   8.8291   9.1751   9.3690   9.6721   9.8411  10.6769  13.6829
    13.7786  14.7821  15.1577  15.3316  15.3454  15.5787  16.0624  16.1509
    16.8102  17.0395  17.2730  17.4012  17.8021  17.9483  18.4698  18.4779
    18.8212  18.9003  19.8473  20.0202  20.4022  21.1554  21.5145  22.2602
    22.6719  23.0292  23.0674  24.0724  24.3751  25.0794  25.3133  25.5252
    25.8797  26.0381  26.3205  27.0388  27.2329  27.3463  27.9062  27.9541
    28.2996  28.3236  28.7523  29.0154

     occupation numbers 
     1.0000   1.0000   1.0000   1.0000   1.0000   1.0000   1.0000   1.0000
     1.0000   1.0000   1.0000   1.0000   1.0000   1.0000   1.0000   1.0000
     1.0000   1.0000   1.0000   1.0000   1.0000   1.0000   1.0000   1.0000
     1.0000   1.0000   1.0000   1.0000   1.0000   1.0000   1.0000   1.0000
     1.0000   1.0000   1.0000   1.0000   1.0000   1.0000   1.0000   1.0000
     1.0000   1.0000   1.0000   1.0000   1.0000   1.0000   1.0000   1.0000
     1.0000   1.0000   1.0000   0.9999   0.7212   0.1209   0.0000   0.0000
     0.0000   0.0000   0.0000   0.0000   0.0000   0.0000   0.0000   0.0000
     0.0000   0.0000   0.0000   0.0000   0.0000   0.0000   0.0000   0.0000
     0.0000   0.0000   0.0000   0.0000   0.0000   0.0000   0.0000   0.0000
     0.0000   0.0000   0.0000   0.0000   0.0000   0.0000   0.0000   0.0000
     0.0000   0.0000   0.0000   0.0000   0.0000   0.0000   0.0000   0.0000
     0.0000   0.0000   0.0000   0.0000

          k =-0.1250 0.2448-0.0813 (  9275 PWs)   bands (ev):

   -31.2065 -15.7935 -15.7699 -11.5883 -11.5098 -11.2909  -8.0180  -7.6441
    -7.3620  -7.2493  -7.1576  -6.7433  -6.6819  -1.1074  -1.0836  -0.9872
    -0.9652  -0.5783  -0.5612   4.3669   4.5574   4.8399   5.0033   5.0165
     5.1009   5.4229   5.8361   6.0457   6.1348   6.2099   6.3600   6.5001
     6.5913   6.8514   7.1816   7.2305   7.3238   7.3820   7.4159   7.6089
     7.9572   8.0230   8.1703   8.3226   8.4103   8.4843   8.5828   8.6533
     8.7962   8.8629   9.2385   9.4068   9.6307   9.8676  10.6440  13.6762
    13.7804  14.7754  15.0747  15.2662  15.3858  15.7868  16.1825  16.2541
    16.6667  16.8866  17.2045  17.3705  17.7737  17.8392  18.4842  18.5174
    18.7214  19.2347  19.8656  19.9832  20.3366  20.7413  21.9587  22.2412
    22.9419  23.0430  23.1727  24.0515  24.4388  24.9267  25.1265  25.4130
    25.9944  26.2212  26.3571  26.5678  27.1640  27.3463  27.7453  27.9293
    28.1895  28.3051  28.7001  28.8651

     occupation numbers 
     1.0000   1.0000   1.0000   1.0000   1.0000   1.0000   1.0000   1.0000
     1.0000   1.0000   1.0000   1.0000   1.0000   1.0000   1.0000   1.0000
     1.0000   1.0000   1.0000   1.0000   1.0000   1.0000   1.0000   1.0000
     1.0000   1.0000   1.0000   1.0000   1.0000   1.0000   1.0000   1.0000
     1.0000   1.0000   1.0000   1.0000   1.0000   1.0000   1.0000   1.0000
     1.0000   1.0000   1.0000   1.0000   1.0000   1.0000   1.0000   1.0000
     1.0000   1.0000   1.0000   0.9996   0.8452   0.0741   0.0000   0.0000
     0.0000   0.0000   0.0000   0.0000   0.0000   0.0000   0.0000   0.0000
     0.0000   0.0000   0.0000   0.0000   0.0000   0.0000   0.0000   0.0000
     0.0000   0.0000   0.0000   0.0000   0.0000   0.0000   0.0000   0.0000
     0.0000   0.0000   0.0000   0.0000   0.0000   0.0000   0.0000   0.0000
     0.0000   0.0000   0.0000   0.0000   0.0000   0.0000   0.0000   0.0000
     0.0000   0.0000   0.0000   0.0000

          k =-0.1250 0.3672 0.0000 (  9272 PWs)   bands (ev):

   -31.2025 -15.7543 -15.7324 -11.6861 -11.5067 -11.2834  -7.7663  -7.7434
    -7.3224  -7.1672  -7.1423  -6.8502  -6.8368  -1.0818  -1.0485  -0.9838
    -0.9339  -0.6106  -0.6042   3.9823   4.2662   4.3085   4.9776   5.0877
     5.1571   5.5040   5.5369   5.7645   5.7715   6.2006   6.3283   6.4109
     6.4270   6.6857   7.1062   7.1734   7.2443   7.2550   7.5029   7.6195
     7.9138   8.0934   8.3014   8.3205   8.4232   8.7190   8.7263   8.8148
     8.9211   9.0578   9.1946   9.4428   9.6867   9.9886  11.1874  13.9809
    14.4340  14.6241  15.1488  15.8240  15.9184  16.1555  16.4033  16.8125
    16.8269  17.1410  17.1584  17.5413  17.5948  18.0121  18.5410  18.6335
    19.1203  19.4636  19.9202  20.2912  20.4816  21.0075  21.5807  22.3760
    22.9752  23.3590  23.6509  24.1670  24.3981  24.4793  24.6448  25.2145
    25.7418  26.0427  26.1707  26.5692  26.6508  26.9034  27.1195  27.3396
    27.7194  28.3178  28.5386  28.6477

     occupation numbers 
     1.0000   1.0000   1.0000   1.0000   1.0000   1.0000   1.0000   1.0000
     1.0000   1.0000   1.0000   1.0000   1.0000   1.0000   1.0000   1.0000
     1.0000   1.0000   1.0000   1.0000   1.0000   1.0000   1.0000   1.0000
     1.0000   1.0000   1.0000   1.0000   1.0000   1.0000   1.0000   1.0000
     1.0000   1.0000   1.0000   1.0000   1.0000   1.0000   1.0000   1.0000
     1.0000   1.0000   1.0000   1.0000   1.0000   1.0000   1.0000   1.0000
     1.0000   1.0000   1.0000   0.9985   0.6680   0.0034   0.0000   0.0000
     0.0000   0.0000   0.0000   0.0000   0.0000   0.0000   0.0000   0.0000
     0.0000   0.0000   0.0000   0.0000   0.0000   0.0000   0.0000   0.0000
     0.0000   0.0000   0.0000   0.0000   0.0000   0.0000   0.0000   0.0000
     0.0000   0.0000   0.0000   0.0000   0.0000   0.0000   0.0000   0.0000
     0.0000   0.0000   0.0000   0.0000   0.0000   0.0000   0.0000   0.0000
     0.0000   0.0000   0.0000   0.0000

          k =-0.1250 0.3672 0.0813 (  9285 PWs)   bands (ev):

   -31.2025 -15.7547 -15.7321 -11.6861 -11.5067 -11.2834  -7.7684  -7.7417
    -7.3071  -7.1906  -7.1376  -6.8529  -6.8302  -1.0864  -1.0416  -0.9825
    -0.9368  -0.6100  -0.6057   4.0114   4.2056   4.3389   4.9858   5.0597
     5.1796   5.4141   5.6292   5.7249   5.8551   6.1994   6.3229   6.3643
     6.4366   6.6361   7.0608   7.1946   7.2399   7.3133   7.5119   7.6006
     7.9498   8.1361   8.3164   8.3215   8.4490   8.7061   8.7319   8.8027
     8.8976   9.0576   9.1232   9.4309   9.7015   9.9674  11.2305  14.0393
    14.3973  14.6319  15.0993  15.7169  15.8957  16.1461  16.4652  16.6619
    16.8940  17.1747  17.2464  17.6022  17.7854  17.9710  18.4796  18.6350
    19.1972  19.4573  19.8080  20.2944  20.6528  20.6828  22.0123  22.0530
    22.9677  23.2947  23.5259  23.6261  24.3834  24.4633  25.0262  25.6113
    25.7960  25.9516  26.2760  26.6082  26.7013  27.0411  27.1491  27.3864
    27.7309  28.2648  28.4389  28.5988

     occupation numbers 
     1.0000   1.0000   1.0000   1.0000   1.0000   1.0000   1.0000   1.0000
     1.0000   1.0000   1.0000   1.0000   1.0000   1.0000   1.0000   1.0000
     1.0000   1.0000   1.0000   1.0000   1.0000   1.0000   1.0000   1.0000
     1.0000   1.0000   1.0000   1.0000   1.0000   1.0000   1.0000   1.0000
     1.0000   1.0000   1.0000   1.0000   1.0000   1.0000   1.0000   1.0000
     1.0000   1.0000   1.0000   1.0000   1.0000   1.0000   1.0000   1.0000
     1.0000   1.0000   1.0000   0.9990   0.6104   0.0065   0.0000   0.0000
     0.0000   0.0000   0.0000   0.0000   0.0000   0.0000   0.0000   0.0000
     0.0000   0.0000   0.0000   0.0000   0.0000   0.0000   0.0000   0.0000
     0.0000   0.0000   0.0000   0.0000   0.0000   0.0000   0.0000   0.0000
     0.0000   0.0000   0.0000   0.0000   0.0000   0.0000   0.0000   0.0000
     0.0000   0.0000   0.0000   0.0000   0.0000   0.0000   0.0000   0.0000
     0.0000   0.0000   0.0000   0.0000

          k =-0.1250 0.3672-0.1626 (  9292 PWs)   bands (ev):

   -31.2025 -15.7551 -15.7317 -11.6861 -11.5068 -11.2834  -7.7704  -7.7402
    -7.2854  -7.2167  -7.1365  -6.8540  -6.8253  -1.0901  -1.0356  -0.9812
    -0.9400  -0.6086  -0.6079   4.0619   4.1395   4.3534   5.0020   5.0294
     5.1996   5.3679   5.6732   5.7094   5.9329   6.2016   6.2943   6.3193
     6.4411   6.5985   7.0314   7.2197   7.2223   7.3638   7.5243   7.5749
     7.9874   8.1779   8.3084   8.3221   8.5474   8.6977   8.7317   8.7605
     8.8501   9.0236   9.0884   9.4222   9.7171   9.9474  11.2711  14.1266
    14.3294  14.6410  15.0527  15.6130  15.8851  16.2127  16.3974  16.5735
    17.0428  17.0839  17.4292  17.6130  17.9073  17.9721  18.4857  18.5702
    19.3205  19.4387  19.6708  20.3080  20.4433  21.1605  21.3226  22.6380
    22.6446  23.0870  23.5625  23.5820  24.3408  24.4631  25.0899  25.5798
    25.6585  26.2578  26.3575  26.6064  26.9782  27.0217  27.3637  27.6750
    27.7543  27.9177  28.3824  28.5229

     occupation numbers 
     1.0000   1.0000   1.0000   1.0000   1.0000   1.0000   1.0000   1.0000
     1.0000   1.0000   1.0000   1.0000   1.0000   1.0000   1.0000   1.0000
     1.0000   1.0000   1.0000   1.0000   1.0000   1.0000   1.0000   1.0000
     1.0000   1.0000   1.0000   1.0000   1.0000   1.0000   1.0000   1.0000
     1.0000   1.0000   1.0000   1.0000   1.0000   1.0000   1.0000   1.0000
     1.0000   1.0000   1.0000   1.0000   1.0000   1.0000   1.0000   1.0000
     1.0000   1.0000   1.0000   0.9993   0.5469   0.0114   0.0000   0.0000
     0.0000   0.0000   0.0000   0.0000   0.0000   0.0000   0.0000   0.0000
     0.0000   0.0000   0.0000   0.0000   0.0000   0.0000   0.0000   0.0000
     0.0000   0.0000   0.0000   0.0000   0.0000   0.0000   0.0000   0.0000
     0.0000   0.0000   0.0000   0.0000   0.0000   0.0000   0.0000   0.0000
     0.0000   0.0000   0.0000   0.0000   0.0000   0.0000   0.0000   0.0000
     0.0000   0.0000   0.0000   0.0000

          k =-0.1250 0.3672-0.0813 (  9285 PWs)   bands (ev):

   -31.2025 -15.7547 -15.7321 -11.6861 -11.5067 -11.2834  -7.7684  -7.7417
    -7.3071  -7.1906  -7.1376  -6.8529  -6.8302  -1.0864  -1.0416  -0.9825
    -0.9368  -0.6100  -0.6057   4.0114   4.2056   4.3389   4.9858   5.0597
     5.1796   5.4141   5.6292   5.7249   5.8551   6.1994   6.3229   6.3643
     6.4366   6.6361   7.0608   7.1946   7.2399   7.3133   7.5119   7.6006
     7.9498   8.1361   8.3164   8.3215   8.4490   8.7061   8.7319   8.8027
     8.8976   9.0576   9.1232   9.4309   9.7015   9.9674  11.2305  14.0393
    14.3973  14.6319  15.0993  15.7169  15.8957  16.1461  16.4652  16.6619
    16.8940  17.1747  17.2464  17.6022  17.7854  17.9710  18.4796  18.6350
    19.1972  19.4573  19.8080  20.2944  20.6528  20.6828  22.0123  22.0530
    22.9677  23.2947  23.5259  23.6261  24.3834  24.4633  25.0262  25.6113
    25.7960  25.9516  26.2760  26.6082  26.7013  27.0411  27.1491  27.3864
    27.7309  28.2648  28.4389  28.5988

     occupation numbers 
     1.0000   1.0000   1.0000   1.0000   1.0000   1.0000   1.0000   1.0000
     1.0000   1.0000   1.0000   1.0000   1.0000   1.0000   1.0000   1.0000
     1.0000   1.0000   1.0000   1.0000   1.0000   1.0000   1.0000   1.0000
     1.0000   1.0000   1.0000   1.0000   1.0000   1.0000   1.0000   1.0000
     1.0000   1.0000   1.0000   1.0000   1.0000   1.0000   1.0000   1.0000
     1.0000   1.0000   1.0000   1.0000   1.0000   1.0000   1.0000   1.0000
     1.0000   1.0000   1.0000   0.9990   0.6104   0.0065   0.0000   0.0000
     0.0000   0.0000   0.0000   0.0000   0.0000   0.0000   0.0000   0.0000
     0.0000   0.0000   0.0000   0.0000   0.0000   0.0000   0.0000   0.0000
     0.0000   0.0000   0.0000   0.0000   0.0000   0.0000   0.0000   0.0000
     0.0000   0.0000   0.0000   0.0000   0.0000   0.0000   0.0000   0.0000
     0.0000   0.0000   0.0000   0.0000   0.0000   0.0000   0.0000   0.0000
     0.0000   0.0000   0.0000   0.0000

          k =-0.1250-0.4896 0.0000 (  9284 PWs)   bands (ev):

   -31.2008 -15.7380 -15.7165 -11.7540 -11.4712 -11.2803  -7.8258  -7.5897
    -7.3766  -7.1285  -7.0281  -6.9979  -6.8764  -1.0581  -1.0278  -0.9622
    -0.9025  -0.6577  -0.6466   3.8308   4.0636   4.1851   4.9651   5.1022
     5.3133   5.3662   5.5295   5.6257   5.6270   6.2664   6.2737   6.3254
     6.4422   6.5779   7.0765   7.0875   7.2095   7.2477   7.6066   7.6140
     7.9643   8.0199   8.3020   8.3775   8.4101   8.7309   8.8017   8.9183
     9.0304   9.1503   9.1870   9.4371   9.6895   9.9757  11.3775  14.2082
    14.3916  14.5294  15.6653  15.7210  16.0838  16.2306  16.5154  16.9245
    17.0618  17.3075  17.3647  17.4614  17.6801  18.1656  18.5067  18.7025
    19.3189  19.4654  19.9928  21.1034  21.1628  21.1926  21.4127  22.1256
    22.2437  22.3387  23.2816  24.2475  24.3264  24.4927  24.8988  25.0380
    25.4042  25.9944  26.2747  26.3924  26.4496  27.0906  27.3875  27.4824
    27.5340  28.0672  28.3498  28.5931

     occupation numbers 
     1.0000   1.0000   1.0000   1.0000   1.0000   1.0000   1.0000   1.0000
     1.0000   1.0000   1.0000   1.0000   1.0000   1.0000   1.0000   1.0000
     1.0000   1.0000   1.0000   1.0000   1.0000   1.0000   1.0000   1.0000
     1.0000   1.0000   1.0000   1.0000   1.0000   1.0000   1.0000   1.0000
     1.0000   1.0000   1.0000   1.0000   1.0000   1.0000   1.0000   1.0000
     1.0000   1.0000   1.0000   1.0000   1.0000   1.0000   1.0000   1.0000
     1.0000   1.0000   1.0000   0.9988   0.6572   0.0051   0.0000   0.0000
     0.0000   0.0000   0.0000   0.0000   0.0000   0.0000   0.0000   0.0000
     0.0000   0.0000   0.0000   0.0000   0.0000   0.0000   0.0000   0.0000
     0.0000   0.0000   0.0000   0.0000   0.0000   0.0000   0.0000   0.0000
     0.0000   0.0000   0.0000   0.0000   0.0000   0.0000   0.0000   0.0000
     0.0000   0.0000   0.0000   0.0000   0.0000   0.0000   0.0000   0.0000
     0.0000   0.0000   0.0000   0.0000

          k =-0.1250-0.4896 0.0813 (  9294 PWs)   bands (ev):

   -31.2008 -15.7384 -15.7162 -11.7540 -11.4712 -11.2803  -7.8282  -7.5879
    -7.3642  -7.1353  -7.0516  -6.9929  -6.8629  -1.0655  -1.0193  -0.9615
    -0.9031  -0.6599  -0.6457   3.8599   4.0202   4.1978   4.9733   5.0777
     5.3127   5.3859   5.4978   5.5560   5.7793   6.2514   6.2809   6.2848
     6.4414   6.5464   7.0179   7.0906   7.2248   7.3035   7.5956   7.6048
     8.0188   8.0394   8.3746   8.3827   8.3979   8.7262   8.8028   8.9054
     9.0181   9.0294   9.1998   9.4366   9.6989   9.9585  11.4248  14.2209
    14.4875  14.5142  15.4177  15.6415  16.1768  16.1974  16.7114  16.7381
    17.0515  17.1749  17.5260  17.6878  17.7860  18.0598  18.5276  18.6713
    19.3251  19.5460  20.1354  20.7419  21.0599  21.2860  21.4234  22.0189
    22.2267  22.6128  23.2726  23.3845  24.4165  24.4853  25.0499  25.2974
    25.9780  25.9971  26.1276  26.3987  26.6566  26.8702  27.3829  27.5558
    27.6031  28.1010  28.2472  28.7948

     occupation numbers 
     1.0000   1.0000   1.0000   1.0000   1.0000   1.0000   1.0000   1.0000
     1.0000   1.0000   1.0000   1.0000   1.0000   1.0000   1.0000   1.0000
     1.0000   1.0000   1.0000   1.0000   1.0000   1.0000   1.0000   1.0000
     1.0000   1.0000   1.0000   1.0000   1.0000   1.0000   1.0000   1.0000
     1.0000   1.0000   1.0000   1.0000   1.0000   1.0000   1.0000   1.0000
     1.0000   1.0000   1.0000   1.0000   1.0000   1.0000   1.0000   1.0000
     1.0000   1.0000   1.0000   0.9988   0.6206   0.0084   0.0000   0.0000
     0.0000   0.0000   0.0000   0.0000   0.0000   0.0000   0.0000   0.0000
     0.0000   0.0000   0.0000   0.0000   0.0000   0.0000   0.0000   0.0000
     0.0000   0.0000   0.0000   0.0000   0.0000   0.0000   0.0000   0.0000
     0.0000   0.0000   0.0000   0.0000   0.0000   0.0000   0.0000   0.0000
     0.0000   0.0000   0.0000   0.0000   0.0000   0.0000   0.0000   0.0000
     0.0000   0.0000   0.0000   0.0000

          k =-0.1250-0.4896-0.1626 (  9292 PWs)   bands (ev):

   -31.2008 -15.7387 -15.7158 -11.7540 -11.4713 -11.2803  -7.8306  -7.5860
    -7.3506  -7.1416  -7.0739  -6.9883  -6.8518  -1.0709  -1.0128  -0.9609
    -0.9038  -0.6620  -0.6449   3.9294   3.9400   4.2069   4.9858   5.0512
     5.3148   5.4037   5.4575   5.5584   5.8878   6.2138   6.2395   6.2845
     6.4415   6.5252   6.9781   7.0924   7.2288   7.3556   7.5731   7.6031
     8.0548   8.0843   8.3357   8.3791   8.5816   8.7219   8.7898   8.8037
     8.9277   9.0075   9.2110   9.4362   9.7084   9.9431  11.4696  14.2350
    14.4976  14.6452  15.1192  15.6214  16.1664  16.3527  16.4764  16.8137
    17.0683  17.2233  17.6717  17.6955  17.8672  18.0143  18.5468  18.6473
    19.3314  19.6602  20.4806  20.5808  20.5987  21.3027  21.4334  22.0033
    22.0790  22.8857  23.0530  23.2632  24.4766  24.4827  25.0969  25.1549
    25.8228  25.9537  26.4403  26.5458  26.6946  27.3599  27.5605  27.6551
    27.8576  27.9754  28.1656  28.1722

     occupation numbers 
     1.0000   1.0000   1.0000   1.0000   1.0000   1.0000   1.0000   1.0000
     1.0000   1.0000   1.0000   1.0000   1.0000   1.0000   1.0000   1.0000
     1.0000   1.0000   1.0000   1.0000   1.0000   1.0000   1.0000   1.0000
     1.0000   1.0000   1.0000   1.0000   1.0000   1.0000   1.0000   1.0000
     1.0000   1.0000   1.0000   1.0000   1.0000   1.0000   1.0000   1.0000
     1.0000   1.0000   1.0000   1.0000   1.0000   1.0000   1.0000   1.0000
     1.0000   1.0000   1.0000   0.9988   0.5827   0.0129   0.0000   0.0000
     0.0000   0.0000   0.0000   0.0000   0.0000   0.0000   0.0000   0.0000
     0.0000   0.0000   0.0000   0.0000   0.0000   0.0000   0.0000   0.0000
     0.0000   0.0000   0.0000   0.0000   0.0000   0.0000   0.0000   0.0000
     0.0000   0.0000   0.0000   0.0000   0.0000   0.0000   0.0000   0.0000
     0.0000   0.0000   0.0000   0.0000   0.0000   0.0000   0.0000   0.0000
     0.0000   0.0000   0.0000   0.0000

          k =-0.1250-0.4896-0.0813 (  9294 PWs)   bands (ev):

   -31.2008 -15.7384 -15.7162 -11.7540 -11.4712 -11.2803  -7.8282  -7.5879
    -7.3642  -7.1353  -7.0516  -6.9929  -6.8629  -1.0655  -1.0193  -0.9615
    -0.9031  -0.6599  -0.6457   3.8599   4.0202   4.1978   4.9733   5.0777
     5.3127   5.3859   5.4978   5.5560   5.7793   6.2514   6.2809   6.2848
     6.4414   6.5464   7.0179   7.0906   7.2248   7.3035   7.5956   7.6048
     8.0188   8.0394   8.3746   8.3827   8.3979   8.7262   8.8028   8.9054
     9.0181   9.0294   9.1998   9.4366   9.6989   9.9585  11.4248  14.2209
    14.4875  14.5142  15.4177  15.6415  16.1768  16.1974  16.7114  16.7381
    17.0515  17.1749  17.5260  17.6878  17.7860  18.0598  18.5276  18.6713
    19.3251  19.5460  20.1354  20.7419  21.0599  21.2860  21.4234  22.0189
    22.2267  22.6128  23.2726  23.3845  24.4165  24.4853  25.0499  25.2974
    25.9780  25.9971  26.1276  26.3987  26.6566  26.8702  27.3829  27.5558
    27.6031  28.1010  28.2472  28.7948

     occupation numbers 
     1.0000   1.0000   1.0000   1.0000   1.0000   1.0000   1.0000   1.0000
     1.0000   1.0000   1.0000   1.0000   1.0000   1.0000   1.0000   1.0000
     1.0000   1.0000   1.0000   1.0000   1.0000   1.0000   1.0000   1.0000
     1.0000   1.0000   1.0000   1.0000   1.0000   1.0000   1.0000   1.0000
     1.0000   1.0000   1.0000   1.0000   1.0000   1.0000   1.0000   1.0000
     1.0000   1.0000   1.0000   1.0000   1.0000   1.0000   1.0000   1.0000
     1.0000   1.0000   1.0000   0.9988   0.6206   0.0084   0.0000   0.0000
     0.0000   0.0000   0.0000   0.0000   0.0000   0.0000   0.0000   0.0000
     0.0000   0.0000   0.0000   0.0000   0.0000   0.0000   0.0000   0.0000
     0.0000   0.0000   0.0000   0.0000   0.0000   0.0000   0.0000   0.0000
     0.0000   0.0000   0.0000   0.0000   0.0000   0.0000   0.0000   0.0000
     0.0000   0.0000   0.0000   0.0000   0.0000   0.0000   0.0000   0.0000
     0.0000   0.0000   0.0000   0.0000

          k =-0.1250-0.3672 0.0000 (  9272 PWs)   bands (ev):

   -31.2025 -15.7543 -15.7324 -11.6861 -11.5067 -11.2834  -7.7663  -7.7434
    -7.3224  -7.1672  -7.1423  -6.8502  -6.8368  -1.0818  -1.0485  -0.9838
    -0.9339  -0.6106  -0.6042   3.9823   4.2662   4.3085   4.9776   5.0877
     5.1571   5.5040   5.5369   5.7645   5.7715   6.2006   6.3283   6.4109
     6.4270   6.6857   7.1062   7.1734   7.2443   7.2550   7.5029   7.6195
     7.9138   8.0934   8.3014   8.3205   8.4232   8.7190   8.7263   8.8148
     8.9211   9.0578   9.1946   9.4428   9.6867   9.9886  11.1874  13.9809
    14.4340  14.6241  15.1488  15.8240  15.9184  16.1555  16.4033  16.8125
    16.8269  17.1410  17.1584  17.5413  17.5948  18.0121  18.5410  18.6335
    19.1203  19.4636  19.9202  20.2912  20.4816  21.0075  21.5807  22.3760
    22.9752  23.3590  23.6509  24.1670  24.3981  24.4793  24.6448  25.2145
    25.7418  26.0427  26.1707  26.5692  26.6508  26.9034  27.1195  27.3396
    27.7194  28.3178  28.5386  28.6477

     occupation numbers 
     1.0000   1.0000   1.0000   1.0000   1.0000   1.0000   1.0000   1.0000
     1.0000   1.0000   1.0000   1.0000   1.0000   1.0000   1.0000   1.0000
     1.0000   1.0000   1.0000   1.0000   1.0000   1.0000   1.0000   1.0000
     1.0000   1.0000   1.0000   1.0000   1.0000   1.0000   1.0000   1.0000
     1.0000   1.0000   1.0000   1.0000   1.0000   1.0000   1.0000   1.0000
     1.0000   1.0000   1.0000   1.0000   1.0000   1.0000   1.0000   1.0000
     1.0000   1.0000   1.0000   0.9985   0.6680   0.0034   0.0000   0.0000
     0.0000   0.0000   0.0000   0.0000   0.0000   0.0000   0.0000   0.0000
     0.0000   0.0000   0.0000   0.0000   0.0000   0.0000   0.0000   0.0000
     0.0000   0.0000   0.0000   0.0000   0.0000   0.0000   0.0000   0.0000
     0.0000   0.0000   0.0000   0.0000   0.0000   0.0000   0.0000   0.0000
     0.0000   0.0000   0.0000   0.0000   0.0000   0.0000   0.0000   0.0000
     0.0000   0.0000   0.0000   0.0000

          k =-0.1250-0.3672 0.0813 (  9285 PWs)   bands (ev):

   -31.2025 -15.7547 -15.7321 -11.6861 -11.5067 -11.2834  -7.7684  -7.7417
    -7.3071  -7.1906  -7.1376  -6.8529  -6.8302  -1.0864  -1.0416  -0.9825
    -0.9368  -0.6100  -0.6057   4.0114   4.2056   4.3389   4.9858   5.0597
     5.1796   5.4141   5.6292   5.7249   5.8551   6.1994   6.3229   6.3643
     6.4366   6.6361   7.0608   7.1946   7.2399   7.3133   7.5119   7.6006
     7.9498   8.1361   8.3164   8.3215   8.4490   8.7061   8.7319   8.8027
     8.8976   9.0576   9.1232   9.4309   9.7015   9.9674  11.2305  14.0393
    14.3973  14.6319  15.0993  15.7169  15.8957  16.1461  16.4652  16.6619
    16.8940  17.1747  17.2464  17.6022  17.7854  17.9710  18.4796  18.6350
    19.1972  19.4573  19.8080  20.2944  20.6528  20.6828  22.0123  22.0530
    22.9677  23.2947  23.5259  23.6261  24.3834  24.4633  25.0262  25.6113
    25.7960  25.9516  26.2760  26.6082  26.7013  27.0411  27.1491  27.3864
    27.7309  28.2648  28.4389  28.5988

     occupation numbers 
     1.0000   1.0000   1.0000   1.0000   1.0000   1.0000   1.0000   1.0000
     1.0000   1.0000   1.0000   1.0000   1.0000   1.0000   1.0000   1.0000
     1.0000   1.0000   1.0000   1.0000   1.0000   1.0000   1.0000   1.0000
     1.0000   1.0000   1.0000   1.0000   1.0000   1.0000   1.0000   1.0000
     1.0000   1.0000   1.0000   1.0000   1.0000   1.0000   1.0000   1.0000
     1.0000   1.0000   1.0000   1.0000   1.0000   1.0000   1.0000   1.0000
     1.0000   1.0000   1.0000   0.9990   0.6104   0.0065   0.0000   0.0000
     0.0000   0.0000   0.0000   0.0000   0.0000   0.0000   0.0000   0.0000
     0.0000   0.0000   0.0000   0.0000   0.0000   0.0000   0.0000   0.0000
     0.0000   0.0000   0.0000   0.0000   0.0000   0.0000   0.0000   0.0000
     0.0000   0.0000   0.0000   0.0000   0.0000   0.0000   0.0000   0.0000
     0.0000   0.0000   0.0000   0.0000   0.0000   0.0000   0.0000   0.0000
     0.0000   0.0000   0.0000   0.0000

          k =-0.1250-0.3672-0.1626 (  9292 PWs)   bands (ev):

   -31.2025 -15.7551 -15.7317 -11.6861 -11.5068 -11.2834  -7.7704  -7.7402
    -7.2854  -7.2167  -7.1365  -6.8540  -6.8253  -1.0901  -1.0356  -0.9812
    -0.9400  -0.6086  -0.6079   4.0619   4.1395   4.3534   5.0020   5.0294
     5.1996   5.3679   5.6732   5.7094   5.9329   6.2016   6.2943   6.3193
     6.4411   6.5985   7.0314   7.2197   7.2223   7.3638   7.5243   7.5749
     7.9874   8.1779   8.3084   8.3221   8.5474   8.6977   8.7317   8.7605
     8.8501   9.0236   9.0884   9.4222   9.7171   9.9474  11.2711  14.1266
    14.3294  14.6410  15.0527  15.6130  15.8851  16.2127  16.3974  16.5735
    17.0428  17.0839  17.4292  17.6130  17.9073  17.9721  18.4857  18.5702
    19.3205  19.4387  19.6708  20.3080  20.4433  21.1605  21.3226  22.6380
    22.6446  23.0870  23.5625  23.5820  24.3408  24.4631  25.0899  25.5798
    25.6585  26.2578  26.3575  26.6064  26.9782  27.0217  27.3637  27.6750
    27.7543  27.9177  28.3824  28.5229

     occupation numbers 
     1.0000   1.0000   1.0000   1.0000   1.0000   1.0000   1.0000   1.0000
     1.0000   1.0000   1.0000   1.0000   1.0000   1.0000   1.0000   1.0000
     1.0000   1.0000   1.0000   1.0000   1.0000   1.0000   1.0000   1.0000
     1.0000   1.0000   1.0000   1.0000   1.0000   1.0000   1.0000   1.0000
     1.0000   1.0000   1.0000   1.0000   1.0000   1.0000   1.0000   1.0000
     1.0000   1.0000   1.0000   1.0000   1.0000   1.0000   1.0000   1.0000
     1.0000   1.0000   1.0000   0.9993   0.5469   0.0114   0.0000   0.0000
     0.0000   0.0000   0.0000   0.0000   0.0000   0.0000   0.0000   0.0000
     0.0000   0.0000   0.0000   0.0000   0.0000   0.0000   0.0000   0.0000
     0.0000   0.0000   0.0000   0.0000   0.0000   0.0000   0.0000   0.0000
     0.0000   0.0000   0.0000   0.0000   0.0000   0.0000   0.0000   0.0000
     0.0000   0.0000   0.0000   0.0000   0.0000   0.0000   0.0000   0.0000
     0.0000   0.0000   0.0000   0.0000

          k =-0.1250-0.3672-0.0813 (  9285 PWs)   bands (ev):

   -31.2025 -15.7547 -15.7321 -11.6861 -11.5067 -11.2834  -7.7684  -7.7417
    -7.3071  -7.1906  -7.1376  -6.8529  -6.8302  -1.0864  -1.0416  -0.9825
    -0.9368  -0.6100  -0.6057   4.0114   4.2056   4.3389   4.9858   5.0597
     5.1796   5.4141   5.6292   5.7249   5.8551   6.1994   6.3229   6.3643
     6.4366   6.6361   7.0608   7.1946   7.2399   7.3133   7.5119   7.6006
     7.9498   8.1361   8.3164   8.3215   8.4490   8.7061   8.7319   8.8027
     8.8976   9.0576   9.1232   9.4309   9.7015   9.9674  11.2305  14.0393
    14.3973  14.6319  15.0993  15.7169  15.8957  16.1461  16.4652  16.6619
    16.8940  17.1747  17.2464  17.6022  17.7854  17.9710  18.4796  18.6350
    19.1972  19.4573  19.8080  20.2944  20.6528  20.6828  22.0123  22.0530
    22.9677  23.2947  23.5259  23.6261  24.3834  24.4633  25.0262  25.6113
    25.7960  25.9516  26.2760  26.6082  26.7013  27.0411  27.1491  27.3864
    27.7309  28.2648  28.4389  28.5988

     occupation numbers 
     1.0000   1.0000   1.0000   1.0000   1.0000   1.0000   1.0000   1.0000
     1.0000   1.0000   1.0000   1.0000   1.0000   1.0000   1.0000   1.0000
     1.0000   1.0000   1.0000   1.0000   1.0000   1.0000   1.0000   1.0000
     1.0000   1.0000   1.0000   1.0000   1.0000   1.0000   1.0000   1.0000
     1.0000   1.0000   1.0000   1.0000   1.0000   1.0000   1.0000   1.0000
     1.0000   1.0000   1.0000   1.0000   1.0000   1.0000   1.0000   1.0000
     1.0000   1.0000   1.0000   0.9990   0.6104   0.0065   0.0000   0.0000
     0.0000   0.0000   0.0000   0.0000   0.0000   0.0000   0.0000   0.0000
     0.0000   0.0000   0.0000   0.0000   0.0000   0.0000   0.0000   0.0000
     0.0000   0.0000   0.0000   0.0000   0.0000   0.0000   0.0000   0.0000
     0.0000   0.0000   0.0000   0.0000   0.0000   0.0000   0.0000   0.0000
     0.0000   0.0000   0.0000   0.0000   0.0000   0.0000   0.0000   0.0000
     0.0000   0.0000   0.0000   0.0000

          k =-0.1250-0.2448 0.0000 (  9284 PWs)   bands (ev):

   -31.2065 -15.7931 -15.7703 -11.5882 -11.5098 -11.2909  -8.0192  -7.6427
    -7.3651  -7.2453  -7.1580  -6.7416  -6.6843  -1.1013  -1.0903  -0.9900
    -0.9624  -0.5789  -0.5596   4.3394   4.5860   4.8373   5.0051   5.0153
     5.1028   5.4625   5.7617   6.0651   6.1171   6.2073   6.3655   6.4989
     6.6255   6.9149   7.2165   7.2236   7.3071   7.3103   7.4021   7.6283
     7.9312   8.0165   8.1719   8.2697   8.4057   8.5020   8.6044   8.6279
     8.7835   8.8863   9.2973   9.4568   9.5852   9.8911  10.6080  13.6696
    13.7820  14.7677  15.0238  15.2776  15.3291  16.1863  16.2220  16.4093
    16.5371  16.5550  17.1285  17.3129  17.7663  17.7735  18.4777  18.6131
    18.6276  19.6452  19.9128  19.9245  19.9778  20.7281  21.8422  22.4867
    23.0142  23.0459  23.8873  24.1620  24.2960  24.5217  24.8535  25.2919
    25.9523  26.1320  26.5338  26.8336  26.9071  27.1313  27.6650  27.8734
    28.1371  28.3312  28.6665  28.6865

     occupation numbers 
     1.0000   1.0000   1.0000   1.0000   1.0000   1.0000   1.0000   1.0000
     1.0000   1.0000   1.0000   1.0000   1.0000   1.0000   1.0000   1.0000
     1.0000   1.0000   1.0000   1.0000   1.0000   1.0000   1.0000   1.0000
     1.0000   1.0000   1.0000   1.0000   1.0000   1.0000   1.0000   1.0000
     1.0000   1.0000   1.0000   1.0000   1.0000   1.0000   1.0000   1.0000
     1.0000   1.0000   1.0000   1.0000   1.0000   1.0000   1.0000   1.0000
     1.0000   1.0000   1.0000   0.9976   0.9318   0.0454   0.0000   0.0000
     0.0000   0.0000   0.0000   0.0000   0.0000   0.0000   0.0000   0.0000
     0.0000   0.0000   0.0000   0.0000   0.0000   0.0000   0.0000   0.0000
     0.0000   0.0000   0.0000   0.0000   0.0000   0.0000   0.0000   0.0000
     0.0000   0.0000   0.0000   0.0000   0.0000   0.0000   0.0000   0.0000
     0.0000   0.0000   0.0000   0.0000   0.0000   0.0000   0.0000   0.0000
     0.0000   0.0000   0.0000   0.0000

          k =-0.1250-0.2448 0.0813 (  9275 PWs)   bands (ev):

   -31.2065 -15.7935 -15.7699 -11.5883 -11.5098 -11.2909  -8.0180  -7.6441
    -7.3620  -7.2493  -7.1576  -6.7433  -6.6819  -1.1074  -1.0836  -0.9872
    -0.9652  -0.5783  -0.5612   4.3669   4.5574   4.8399   5.0033   5.0165
     5.1009   5.4229   5.8361   6.0457   6.1348   6.2099   6.3600   6.5001
     6.5913   6.8514   7.1816   7.2305   7.3238   7.3820   7.4159   7.6089
     7.9572   8.0230   8.1703   8.3226   8.4103   8.4843   8.5828   8.6533
     8.7962   8.8629   9.2385   9.4068   9.6307   9.8676  10.6440  13.6762
    13.7804  14.7754  15.0747  15.2662  15.3858  15.7868  16.1825  16.2541
    16.6667  16.8866  17.2045  17.3705  17.7737  17.8392  18.4842  18.5174
    18.7214  19.2347  19.8656  19.9832  20.3366  20.7413  21.9587  22.2412
    22.9419  23.0430  23.1727  24.0515  24.4388  24.9267  25.1265  25.4130
    25.9944  26.2212  26.3571  26.5678  27.1640  27.3463  27.7453  27.9293
    28.1895  28.3051  28.7001  28.8651

     occupation numbers 
     1.0000   1.0000   1.0000   1.0000   1.0000   1.0000   1.0000   1.0000
     1.0000   1.0000   1.0000   1.0000   1.0000   1.0000   1.0000   1.0000
     1.0000   1.0000   1.0000   1.0000   1.0000   1.0000   1.0000   1.0000
     1.0000   1.0000   1.0000   1.0000   1.0000   1.0000   1.0000   1.0000
     1.0000   1.0000   1.0000   1.0000   1.0000   1.0000   1.0000   1.0000
     1.0000   1.0000   1.0000   1.0000   1.0000   1.0000   1.0000   1.0000
     1.0000   1.0000   1.0000   0.9996   0.8452   0.0741   0.0000   0.0000
     0.0000   0.0000   0.0000   0.0000   0.0000   0.0000   0.0000   0.0000
     0.0000   0.0000   0.0000   0.0000   0.0000   0.0000   0.0000   0.0000
     0.0000   0.0000   0.0000   0.0000   0.0000   0.0000   0.0000   0.0000
     0.0000   0.0000   0.0000   0.0000   0.0000   0.0000   0.0000   0.0000
     0.0000   0.0000   0.0000   0.0000   0.0000   0.0000   0.0000   0.0000
     0.0000   0.0000   0.0000   0.0000

          k =-0.1250-0.2448-0.1626 (  9266 PWs)   bands (ev):

   -31.2065 -15.7939 -15.7694 -11.5884 -11.5097 -11.2909  -8.0168  -7.6454
    -7.3587  -7.2534  -7.1572  -6.7450  -6.6796  -1.1113  -1.0789  -0.9845
    -0.9680  -0.5775  -0.5629   4.4077   4.5155   4.8423   5.0018   5.0171
     5.0998   5.3919   5.9135   6.0224   6.1515   6.2126   6.3546   6.5137
     6.5307   6.8073   7.1628   7.2275   7.3381   7.4257   7.4509   7.5797
     7.9913   8.0135   8.1798   8.3668   8.4564   8.4621   8.5490   8.6736
     8.8081   8.8291   9.1751   9.3690   9.6721   9.8411  10.6769  13.6829
    13.7786  14.7821  15.1577  15.3316  15.3454  15.5787  16.0624  16.1509
    16.8102  17.0395  17.2730  17.4012  17.8021  17.9483  18.4698  18.4779
    18.8212  18.9003  19.8473  20.0202  20.4022  21.1554  21.5145  22.2602
    22.6719  23.0292  23.0674  24.0724  24.3751  25.0794  25.3133  25.5252
    25.8797  26.0381  26.3205  27.0388  27.2329  27.3463  27.9062  27.9541
    28.2996  28.3236  28.7523  29.0154

     occupation numbers 
     1.0000   1.0000   1.0000   1.0000   1.0000   1.0000   1.0000   1.0000
     1.0000   1.0000   1.0000   1.0000   1.0000   1.0000   1.0000   1.0000
     1.0000   1.0000   1.0000   1.0000   1.0000   1.0000   1.0000   1.0000
     1.0000   1.0000   1.0000   1.0000   1.0000   1.0000   1.0000   1.0000
     1.0000   1.0000   1.0000   1.0000   1.0000   1.0000   1.0000   1.0000
     1.0000   1.0000   1.0000   1.0000   1.0000   1.0000   1.0000   1.0000
     1.0000   1.0000   1.0000   0.9999   0.7212   0.1209   0.0000   0.0000
     0.0000   0.0000   0.0000   0.0000   0.0000   0.0000   0.0000   0.0000
     0.0000   0.0000   0.0000   0.0000   0.0000   0.0000   0.0000   0.0000
     0.0000   0.0000   0.0000   0.0000   0.0000   0.0000   0.0000   0.0000
     0.0000   0.0000   0.0000   0.0000   0.0000   0.0000   0.0000   0.0000
     0.0000   0.0000   0.0000   0.0000   0.0000   0.0000   0.0000   0.0000
     0.0000   0.0000   0.0000   0.0000

          k =-0.1250-0.2448-0.0813 (  9275 PWs)   bands (ev):

   -31.2065 -15.7935 -15.7699 -11.5883 -11.5098 -11.2909  -8.0180  -7.6441
    -7.3620  -7.2493  -7.1576  -6.7433  -6.6819  -1.1074  -1.0836  -0.9872
    -0.9652  -0.5783  -0.5612   4.3669   4.5574   4.8399   5.0033   5.0165
     5.1009   5.4229   5.8361   6.0457   6.1348   6.2099   6.3600   6.5001
     6.5913   6.8514   7.1816   7.2305   7.3238   7.3820   7.4159   7.6089
     7.9572   8.0230   8.1703   8.3226   8.4103   8.4843   8.5828   8.6533
     8.7962   8.8629   9.2385   9.4068   9.6307   9.8676  10.6440  13.6762
    13.7804  14.7754  15.0747  15.2662  15.3858  15.7868  16.1825  16.2541
    16.6667  16.8866  17.2045  17.3705  17.7737  17.8392  18.4842  18.5174
    18.7214  19.2347  19.8656  19.9832  20.3366  20.7413  21.9587  22.2412
    22.9419  23.0430  23.1727  24.0515  24.4388  24.9267  25.1265  25.4130
    25.9944  26.2212  26.3571  26.5678  27.1640  27.3463  27.7453  27.9293
    28.1895  28.3051  28.7001  28.8651

     occupation numbers 
     1.0000   1.0000   1.0000   1.0000   1.0000   1.0000   1.0000   1.0000
     1.0000   1.0000   1.0000   1.0000   1.0000   1.0000   1.0000   1.0000
     1.0000   1.0000   1.0000   1.0000   1.0000   1.0000   1.0000   1.0000
     1.0000   1.0000   1.0000   1.0000   1.0000   1.0000   1.0000   1.0000
     1.0000   1.0000   1.0000   1.0000   1.0000   1.0000   1.0000   1.0000
     1.0000   1.0000   1.0000   1.0000   1.0000   1.0000   1.0000   1.0000
     1.0000   1.0000   1.0000   0.9996   0.8452   0.0741   0.0000   0.0000
     0.0000   0.0000   0.0000   0.0000   0.0000   0.0000   0.0000   0.0000
     0.0000   0.0000   0.0000   0.0000   0.0000   0.0000   0.0000   0.0000
     0.0000   0.0000   0.0000   0.0000   0.0000   0.0000   0.0000   0.0000
     0.0000   0.0000   0.0000   0.0000   0.0000   0.0000   0.0000   0.0000
     0.0000   0.0000   0.0000   0.0000   0.0000   0.0000   0.0000   0.0000
     0.0000   0.0000   0.0000   0.0000

          k =-0.1250-0.1224 0.0000 (  9267 PWs)   bands (ev):

   -31.2106 -15.8311 -15.8075 -11.6647 -11.3151 -11.2939  -8.2770  -7.5635
    -7.4648  -7.2784  -7.1330  -6.6468  -6.5454  -1.1264  -1.0977  -0.9267
    -0.9157  -0.6229  -0.6121   4.6825   4.7846   4.9404   5.0576   5.1110
     5.3152   5.7317   6.1384   6.1780   6.3119   6.4534   6.6022   6.6205
     6.9461   7.0631   7.1295   7.2218   7.4289   7.4773   7.5127   7.6542
     7.9344   7.9346   8.0432   8.0884   8.1405   8.1907   8.3309   8.5989
     8.8433   9.0575   9.2717   9.3036   9.4242   9.5960   9.7873  13.0026
    13.4223  14.5331  14.5706  14.9255  15.1416  15.9788  16.2053  16.2351
    16.2433  16.7014  17.1114  17.1414  17.7010  17.9790  18.1643  18.3027
    18.4468  19.0903  19.3364  19.7776  20.5825  21.0775  22.0990  22.3522
    22.4480  23.1939  23.7506  23.8623  23.9749  24.5043  24.9514  25.2029
    25.5580  25.7107  26.2417  26.9915  27.1381  27.8154  27.8337  28.1237
    28.5455  28.9696  29.0278  29.1578

     occupation numbers 
     1.0000   1.0000   1.0000   1.0000   1.0000   1.0000   1.0000   1.0000
     1.0000   1.0000   1.0000   1.0000   1.0000   1.0000   1.0000   1.0000
     1.0000   1.0000   1.0000   1.0000   1.0000   1.0000   1.0000   1.0000
     1.0000   1.0000   1.0000   1.0000   1.0000   1.0000   1.0000   1.0000
     1.0000   1.0000   1.0000   1.0000   1.0000   1.0000   1.0000   1.0000
     1.0000   1.0000   1.0000   1.0000   1.0000   1.0000   1.0000   1.0000
     1.0000   1.0000   1.0000   1.0000   0.9992   0.9158   0.2706   0.0000
     0.0000   0.0000   0.0000   0.0000   0.0000   0.0000   0.0000   0.0000
     0.0000   0.0000   0.0000   0.0000   0.0000   0.0000   0.0000   0.0000
     0.0000   0.0000   0.0000   0.0000   0.0000   0.0000   0.0000   0.0000
     0.0000   0.0000   0.0000   0.0000   0.0000   0.0000   0.0000   0.0000
     0.0000   0.0000   0.0000   0.0000   0.0000   0.0000   0.0000   0.0000
     0.0000   0.0000   0.0000   0.0000

          k =-0.1250-0.1224 0.0813 (  9256 PWs)   bands (ev):

   -31.2106 -15.8316 -15.8070 -11.6648 -11.3151 -11.2938  -8.2757  -7.5655
    -7.4645  -7.2784  -7.1331  -6.6492  -6.5423  -1.1228  -1.1020  -0.9249
    -0.9164  -0.6230  -0.6127   4.7051   4.7786   4.9392   5.0514   5.0996
     5.3143   5.7277   6.1645   6.1824   6.3137   6.4318   6.6045   6.6234
     6.9137   7.0391   7.1201   7.2363   7.4603   7.4943   7.5063   7.6302
     7.9118   7.9525   8.0931   8.1078   8.1416   8.1941   8.3171   8.6147
     8.8773   9.0233   9.1706   9.3388   9.4226   9.5753   9.8228  13.0774
    13.3812  14.4496  14.6472  14.9357  15.0910  15.7031  15.9960  16.3940
    16.6346  16.7020  17.1360  17.2019  17.6886  17.9634  18.1666  18.3267
    18.4206  18.8148  19.6610  19.8622  20.4725  21.1570  22.0160  22.1909
    22.3524  22.8906  23.4166  23.9680  24.3573  24.5101  24.9335  25.2883
    25.6707  26.1514  26.2139  26.6314  27.4772  27.5278  28.0410  28.2769
    28.6981  28.8590  29.0795  29.1653

     occupation numbers 
     1.0000   1.0000   1.0000   1.0000   1.0000   1.0000   1.0000   1.0000
     1.0000   1.0000   1.0000   1.0000   1.0000   1.0000   1.0000   1.0000
     1.0000   1.0000   1.0000   1.0000   1.0000   1.0000   1.0000   1.0000
     1.0000   1.0000   1.0000   1.0000   1.0000   1.0000   1.0000   1.0000
     1.0000   1.0000   1.0000   1.0000   1.0000   1.0000   1.0000   1.0000
     1.0000   1.0000   1.0000   1.0000   1.0000   1.0000   1.0000   1.0000
     1.0000   1.0000   1.0000   1.0000   0.9993   0.9443   0.1635   0.0000
     0.0000   0.0000   0.0000   0.0000   0.0000   0.0000   0.0000   0.0000
     0.0000   0.0000   0.0000   0.0000   0.0000   0.0000   0.0000   0.0000
     0.0000   0.0000   0.0000   0.0000   0.0000   0.0000   0.0000   0.0000
     0.0000   0.0000   0.0000   0.0000   0.0000   0.0000   0.0000   0.0000
     0.0000   0.0000   0.0000   0.0000   0.0000   0.0000   0.0000   0.0000
     0.0000   0.0000   0.0000   0.0000

          k =-0.1250-0.1224-0.1626 (  9268 PWs)   bands (ev):

   -31.2106 -15.8321 -15.8065 -11.6648 -11.3151 -11.2938  -8.2744  -7.5675
    -7.4642  -7.2784  -7.1331  -6.6516  -6.5394  -1.1166  -1.1089  -0.9231
    -0.9173  -0.6232  -0.6132   4.7415   4.7603   4.9381   5.0403   5.0913
     5.3133   5.7240   6.1814   6.1948   6.3350   6.3922   6.6073   6.6268
     6.8765   7.0210   7.1193   7.2434   7.4787   7.4930   7.5590   7.5749
     7.9012   7.9606   8.1010   8.1311   8.1755   8.2275   8.2806   8.6332
     8.9243   8.9744   9.1108   9.2842   9.4978   9.5286   9.8499  13.2337
    13.2573  14.3833  14.7984  14.9201  14.9628  15.5015  16.0569  16.3935
    16.7151  16.8584  17.1666  17.2094  17.7113  17.9452  18.1917  18.3744
    18.3766  18.6334  19.8057  20.1696  20.2099  21.4102  21.6583  21.9733
    22.2720  22.7267  23.4538  24.0240  24.4505  24.5222  24.9085  25.5170
    25.5996  26.1283  26.1827  27.1135  27.2179  28.0191  28.1391  28.1715
    28.6495  28.8335  29.0154  29.0224

     occupation numbers 
     1.0000   1.0000   1.0000   1.0000   1.0000   1.0000   1.0000   1.0000
     1.0000   1.0000   1.0000   1.0000   1.0000   1.0000   1.0000   1.0000
     1.0000   1.0000   1.0000   1.0000   1.0000   1.0000   1.0000   1.0000
     1.0000   1.0000   1.0000   1.0000   1.0000   1.0000   1.0000   1.0000
     1.0000   1.0000   1.0000   1.0000   1.0000   1.0000   1.0000   1.0000
     1.0000   1.0000   1.0000   1.0000   1.0000   1.0000   1.0000   1.0000
     1.0000   1.0000   1.0000   1.0000   0.9917   0.9811   0.1035   0.0000
     0.0000   0.0000   0.0000   0.0000   0.0000   0.0000   0.0000   0.0000
     0.0000   0.0000   0.0000   0.0000   0.0000   0.0000   0.0000   0.0000
     0.0000   0.0000   0.0000   0.0000   0.0000   0.0000   0.0000   0.0000
     0.0000   0.0000   0.0000   0.0000   0.0000   0.0000   0.0000   0.0000
     0.0000   0.0000   0.0000   0.0000   0.0000   0.0000   0.0000   0.0000
     0.0000   0.0000   0.0000   0.0000

          k =-0.1250-0.1224-0.0813 (  9256 PWs)   bands (ev):

   -31.2106 -15.8316 -15.8070 -11.6648 -11.3151 -11.2938  -8.2757  -7.5655
    -7.4645  -7.2784  -7.1331  -6.6492  -6.5423  -1.1228  -1.1020  -0.9249
    -0.9164  -0.6230  -0.6127   4.7051   4.7786   4.9392   5.0514   5.0996
     5.3143   5.7277   6.1645   6.1824   6.3137   6.4318   6.6045   6.6234
     6.9137   7.0391   7.1201   7.2363   7.4603   7.4943   7.5063   7.6302
     7.9118   7.9525   8.0931   8.1078   8.1416   8.1941   8.3171   8.6147
     8.8773   9.0233   9.1706   9.3388   9.4226   9.5753   9.8228  13.0774
    13.3812  14.4496  14.6472  14.9357  15.0910  15.7031  15.9960  16.3940
    16.6346  16.7020  17.1360  17.2019  17.6886  17.9634  18.1666  18.3267
    18.4206  18.8148  19.6610  19.8622  20.4725  21.1570  22.0160  22.1909
    22.3524  22.8906  23.4166  23.9680  24.3573  24.5101  24.9335  25.2883
    25.6707  26.1514  26.2139  26.6314  27.4772  27.5278  28.0410  28.2769
    28.6981  28.8590  29.0795  29.1653

     occupation numbers 
     1.0000   1.0000   1.0000   1.0000   1.0000   1.0000   1.0000   1.0000
     1.0000   1.0000   1.0000   1.0000   1.0000   1.0000   1.0000   1.0000
     1.0000   1.0000   1.0000   1.0000   1.0000   1.0000   1.0000   1.0000
     1.0000   1.0000   1.0000   1.0000   1.0000   1.0000   1.0000   1.0000
     1.0000   1.0000   1.0000   1.0000   1.0000   1.0000   1.0000   1.0000
     1.0000   1.0000   1.0000   1.0000   1.0000   1.0000   1.0000   1.0000
     1.0000   1.0000   1.0000   1.0000   0.9993   0.9443   0.1635   0.0000
     0.0000   0.0000   0.0000   0.0000   0.0000   0.0000   0.0000   0.0000
     0.0000   0.0000   0.0000   0.0000   0.0000   0.0000   0.0000   0.0000
     0.0000   0.0000   0.0000   0.0000   0.0000   0.0000   0.0000   0.0000
     0.0000   0.0000   0.0000   0.0000   0.0000   0.0000   0.0000   0.0000
     0.0000   0.0000   0.0000   0.0000   0.0000   0.0000   0.0000   0.0000
     0.0000   0.0000   0.0000   0.0000

     the Fermi energy is     9.7285 ev
     (compare with:     9.7284 eV, computed in scf)

     Writing all to output data dir ./out/ybco.save/ :
     XML data file, pseudopotentials, collected wavefunctions

     init_run     :      4.26s CPU      5.26s WALL (       1 calls)
     electrons    :  24130.65s CPU  24208.49s WALL (       1 calls)

     Called by init_run:
     wfcinit      :      0.00s CPU      0.00s WALL (       1 calls)
     wfcinit:atom :      0.86s CPU      2.09s WALL (     256 calls)
     wfcinit:wfcr :    351.65s CPU    352.66s WALL (     256 calls)
     potinit      :      1.11s CPU      1.19s WALL (       1 calls)
     hinit0       :      1.41s CPU      1.47s WALL (       1 calls)

     Called by electrons:
     c_bands      :  24130.63s CPU  24208.47s WALL (       1 calls)
     v_of_rho     :      0.14s CPU      0.18s WALL (       1 calls)
     v_h          :      0.01s CPU      0.01s WALL (       1 calls)
     v_xc         :      0.14s CPU      0.17s WALL (       1 calls)
     newd         :      1.47s CPU      2.31s WALL (       1 calls)
     PAW_pot      :      0.56s CPU      0.56s WALL (       1 calls)

     Called by c_bands:
     init_us_2    :      1.43s CPU      2.39s WALL (     256 calls)
     cegterg      :  23766.45s CPU  23828.28s WALL (     970 calls)

     Called by sum_band:

     Called by *egterg:
     cdiaghg      :    369.33s CPU    370.18s WALL (   16895 calls)
     cegterg:over :   3926.64s CPU   3930.02s WALL (   16639 calls)
     cegterg:upda :   2286.29s CPU   2288.15s WALL (   16639 calls)
     cegterg:last :   8086.67s CPU   8090.50s WALL (    8998 calls)
     h_psi        :   6516.61s CPU   6541.77s WALL (   17865 calls)
     s_psi        :   2500.75s CPU   2501.91s WALL (   17865 calls)
     g_psi        :     27.53s CPU     27.74s WALL (   16639 calls)

     Called by h_psi:
     h_psi:calbec :   2512.36s CPU   2514.25s WALL (   17865 calls)
     vloc_psi     :   1497.63s CPU   1505.62s WALL (   17865 calls)
     add_vuspsi   :   2489.07s CPU   2490.38s WALL (   17865 calls)

     General routines
     calbec       :   2512.21s CPU   2513.74s WALL (   17865 calls)
     fft          :      0.45s CPU      0.47s WALL (      13 calls)
     ffts         :      0.40s CPU      0.40s WALL (       1 calls)
     fftw         :   1209.95s CPU   1215.36s WALL ( 1861032 calls)
     interpolate  :      0.40s CPU      0.41s WALL (       1 calls)
     davcio       :      0.15s CPU      9.35s WALL (     512 calls)

     Parallel routines

     PAW routines
     PAW_pot      :      0.56s CPU      0.56s WALL (       1 calls)

     PWSCF        :      6h42m CPU      6h43m WALL


   This run was terminated on:   8: 3: 0   6Oct2026            

=------------------------------------------------------------------------------=
   JOB DONE.
=------------------------------------------------------------------------------=
